 vasp.5.3.5 31Mar14 (build Mar 26 2015 15:03:36) complex

 executed on             LinuxIFC date 2015.12.16  11:13:28

 INCAR:
 POTCAR:    PAW_PBE Cd 06Sep2000
 POTCAR:    PAW_PBE Te 08Apr2002

 POTCAR:    PAW_PBE Cd 06Sep2000
   VRHFIN =Cd : s2 d10

   TITEL  = PAW_PBE Cd 06Sep2000
   POMASS =  112.411; ZVAL   =   12.000    mass and valenz
   ENMAX  =  274.336; ENMIN  =  205.752 eV

 POTCAR:    PAW_PBE Te 08Apr2002
   VRHFIN =Te: s2p4

   TITEL  = PAW_PBE Te 08Apr2002
   POMASS =  127.600; ZVAL   =    6.000    mass and valenz
   ENMAX  =  174.982; ENMIN  =  131.236 eV

  PAW_PBE Cd 06Sep2000                  :
  PAW_PBE Te 08Apr2002                  :

 POSCAR: Cd1 Te1
  positions in direct lattice
  velocities in cartesian coordinates
 exchange correlation table for  LEXCH =        8
   RHO(1)=    0.500       N(1)  =     2000
   RHO(2)=  100.500       N(2)  =     4000

 ion  position               nearest neighbor table
   1  0.000  0.000  0.000-   5 2.87   6 2.87   7 2.87   8 2.87
   2  0.000  0.500  0.500-   5 2.87   6 2.87   7 2.87   8 2.87
   3  0.500  0.000  0.500-   5 2.87   6 2.87   7 2.87   8 2.87
   4  0.500  0.500  0.000-   5 2.87   6 2.87   7 2.87   8 2.87
   5  0.250  0.250  0.250-   1 2.87   2 2.87   3 2.87   4 2.87
   6  0.750  0.750  0.250-   1 2.87   2 2.87   3 2.87   4 2.87
   7  0.750  0.250  0.750-   1 2.87   2 2.87   3 2.87   4 2.87
   8  0.250  0.750  0.750-   1 2.87   2 2.87   3 2.87   4 2.87

  LATTYP: Found a simple cubic cell.
 ALAT       =     6.6231105740

  Lattice vectors:

 A1 = (   6.6231105740,   0.0000000000,   0.0000000000)
 A2 = (   0.0000000000,   6.6231105740,   0.0000000000)
 A3 = (   0.0000000000,   0.0000000000,   6.6231105740)

Analysis of symmetry for initial positions (statically):
 Subroutine PRICEL returns following result:

  LATTYP: Found a face centered cubic cell.
 ALAT       =     6.6231105740

[...]

   4 primitive cells build up your supercell.

 Routine SETGRP: Setting up the symmetry group for a
 simple cubic supercell.

 Subroutine GETGRP returns: Found 24 space group operations
 (whereof 24 operations were pure point group operations)
 out of a pool of 48 trial point group operations.

The static configuration has the point symmetry T_d .

Analysis of symmetry for dynamics (positions and initial velocities):
 Subroutine PRICEL returns following result:

  LATTYP: Found a face centered cubic cell.
 ALAT       =     6.6231105740

  Lattice vectors:

 A1 = (   3.3115552870,   3.3115552870,   0.0000000000)
 A2 = (   3.3115552870,   0.0000000000,  -3.3115552870)
 A3 = (   0.0000000000,   3.3115552870,  -3.3115552870)

   4 primitive cells build up your supercell.

 Routine SETGRP: Setting up the symmetry group for a
 simple cubic supercell.

 Subroutine GETGRP returns: Found 24 space group operations
 (whereof 24 operations were pure point group operations)
 out of a pool of 48 trial point group operations.

The dynamic configuration has the point symmetry T_d .

 KPOINTS: Automatic mesh

Automatic generation of k-mesh.
Space group operators:
 irot       det(A)        alpha          n_x          n_y          n_z        tau_x        tau_y        tau_z
    1     1.000000     0.000000     1.000000     0.000000     0.000000     0.000000     0.000000     0.000000
    2     1.000000   120.000000    -0.577350    -0.577350    -0.577350     0.000000     0.000000     0.000000
    3     1.000000   120.000000     0.577350     0.577350     0.577350     0.000000     0.000000     0.000000
    4    -1.000000    90.000000     0.000000     0.000000    -1.000000     0.000000     0.000000     0.000000
    5    -1.000000   180.000000     0.000000     0.707107     0.707107     0.000000     0.000000     0.000000
    6    -1.000000    90.000000     0.000000     1.000000     0.000000     0.000000     0.000000     0.000000
    7     1.000000   180.000000     0.000000     0.000000     1.000000     0.000000     0.000000     0.000000
    8     1.000000   120.000000    -0.577350     0.577350     0.577350     0.000000     0.000000     0.000000
    9     1.000000   120.000000    -0.577350     0.577350    -0.577350     0.000000     0.000000     0.000000
   10    -1.000000    90.000000     0.000000     0.000000     1.000000     0.000000     0.000000     0.000000
   11    -1.000000    90.000000    -1.000000     0.000000     0.000000     0.000000     0.000000     0.000000
   12    -1.000000   180.000000     0.707107     0.000000     0.707107     0.000000     0.000000     0.000000
   13     1.000000   120.000000     0.577350    -0.577350     0.577350     0.000000     0.000000     0.000000
   14     1.000000   120.000000    -0.577350    -0.577350     0.577350     0.000000     0.000000     0.000000
   15     1.000000   180.000000     1.000000     0.000000     0.000000     0.000000     0.000000     0.000000
   16    -1.000000    90.000000     0.000000    -1.000000     0.000000     0.000000     0.000000     0.000000
   17    -1.000000   180.000000     0.707107     0.707107     0.000000     0.000000     0.000000     0.000000
   18    -1.000000    90.000000     1.000000     0.000000     0.000000     0.000000     0.000000     0.000000
   19     1.000000   120.000000     0.577350    -0.577350    -0.577350     0.000000     0.000000     0.000000
   20     1.000000   180.000000     0.000000     1.000000     0.000000     0.000000     0.000000     0.000000
   21     1.000000   120.000000     0.577350     0.577350    -0.577350     0.000000     0.000000     0.000000
   22    -1.000000   180.000000     0.000000    -0.707107     0.707107     0.000000     0.000000     0.000000
   23    -1.000000   180.000000     0.707107    -0.707107     0.000000     0.000000     0.000000     0.000000
   24    -1.000000   180.000000     0.707107     0.000000    -0.707107     0.000000     0.000000     0.000000

 Subroutine IBZKPT returns following result:

 Found     10 irreducible k-points:

 Following reciprocal coordinates:
            Coordinates               Weight
  0.000000  0.000000  0.000000      1.000000
  0.250000  0.000000  0.000000      6.000000
  0.500000  0.000000  0.000000      3.000000
  0.250000  0.250000  0.000000     12.000000
  0.500000  0.250000  0.000000     12.000000
  0.500000  0.500000  0.000000      3.000000
  0.250000  0.250000  0.250000      8.000000
  0.500000  0.250000  0.250000     12.000000
  0.500000  0.500000  0.250000      6.000000
  0.500000  0.500000  0.500000      1.000000

 Following cartesian coordinates:
            Coordinates               Weight
  0.000000  0.000000  0.000000      1.000000
  0.037747  0.000000  0.000000      6.000000
  0.075493  0.000000  0.000000      3.000000
  0.037747  0.037747  0.000000     12.000000
  0.075493  0.037747  0.000000     12.000000
  0.075493  0.075493  0.000000      3.000000
  0.037747  0.037747  0.037747      8.000000
  0.075493  0.037747  0.037747     12.000000
  0.075493  0.075493  0.037747      6.000000
  0.075493  0.075493  0.075493      1.000000

 I would recommend the setting:
   dimension x,y,z NGX =    36 NGY =   36 NGZ =   36
 SYSTEM =  Name
 POSCAR =  Cd1 Te1

 Startparameter for this run:
   NWRITE =      2    write-flag & timer
   PREC   = normal    normal or accurate (medium, high low for compatibility)
   ISTART =      1    job   : 0-new  1-cont  2-samecut
   ICHARG =      0    charge: 1-file 2-atom 10-const
   ISPIN  =      1    spin polarized calculation?
   LNONCOLLINEAR =      F non collinear calculations
   LSORBIT =      F    spin-orbit coupling
   INIWAV =      1    electr: 0-lowe 1-rand  2-diag
   LASPH  =      F    aspherical Exc in radial PAW
   METAGGA=      F    non-selfconsistent MetaGGA calc.

 Electronic Relaxation 1
   ENCUT  =  500.0 eV  36.75 Ry    6.06 a.u.  12.08 12.08 12.08*2*pi/ulx,y,z
   ENINI  =  500.0     initial cutoff
   ENAUG  =  456.1 eV  augmentation charge cutoff
   NELM   =     60;   NELMIN=  2; NELMDL=  0     # of ELM steps
   EDIFF  = 0.1E-05   stopping-criterion for ELM
   LREAL  =      F    real-space projection
   NLSPLINE    = F    spline interpolate recip. space projectors
   LCOMPAT=      F    compatible to vasp.4.4
   GGA_COMPAT  = T    GGA compatible to vasp.4.4-vasp.4.6
   LMAXPAW     = -100 max onsite density
   LMAXMIX     =    2 max onsite mixed and CHGCAR
   VOSKOWN=      0    Vosko Wilk Nusair interpolation
   ROPT   =    0.00000   0.00000
 Ionic relaxation
   EDIFFG = -.5E-02   stopping-criterion for IOM
   NSW    =    100    number of steps for IOM
   NBLOCK =      1;   KBLOCK =    100    inner block; outer block
   IBRION =      2    ionic relax: 0-MD 1-quasi-New 2-CG
   NFREE  =      1    steps in history (QN), initial steepest desc. (CG)
   ISIF   =      3    stress and relaxation
   IWAVPR =     11    prediction:  0-non 1-charg 2-wave 3-comb
   ISYM   =      2    0-nonsym 1-usesym 2-fastsym
   LCORR  =      T    Harris-Foulkes like correction to forces

   POTIM  = 0.5000    time-step for ionic-motion
   TEIN   =    0.0    initial temperature
   TEBEG  =    0.0;   TEEND  =   0.0 temperature during run
   SMASS  =  -3.00    Nose mass-parameter (am)
   estimated Nose-frequenzy (Omega)   =  0.10E-29 period in steps =****** mass=  -0.100E-26a.u.
   SCALEE = 1.0000    scale energy and forces
   NPACO  =    256;   APACO  = 16.0  distance and # of slots for P.C.
   PSTRESS=    0.0 pullay stress

  Mass of Ions in am
   POMASS = 112.41127.60
  Ionic Valenz
   ZVAL   =  12.00  6.00
  Atomic Wigner-Seitz radii
  virtual crystal weights
   VCA    =   1.00  1.00
   NELECT =      72.0000    total number of electrons
   NUPDOWN=      -1.0000    fix difference up-down

 DOS related values:
   EMIN   =  10.00;   EMAX   =-10.00  energy-range for DOS
   EFERMI =   0.00
   ISMEAR =     0;   SIGMA  =   0.01  broadening in eV -4-tet -1-fermi 0-gaus

 Electronic relaxation 2 (details)
   IALGO  =     38    algorithm
   LDIAG  =      T    sub-space diagonalisation (order eigenvalues)
   LSUBROT=      F    optimize rotation matrix (better conditioning)
   TURBO    =      0    0=normal 1=particle mesh
   IRESTART =      0    0=no restart 2=restart with 2 vectors
   NREBOOT  =      0    no. of reboots
   NMIN     =      0    reboot dimension
   EREF     =   0.00    reference energy to select bands
   IMIX   =      4    mixing-type and parameters
     AMIX     =   0.40;   BMIX     =  1.00
     AMIX_MAG =   1.60;   BMIX_MAG =  1.00
     AMIN     =   0.01
     WC   =   100.;   INIMIX=   1;  MIXPRE=   1;  MAXMIX= -45

 Intra band minimization:
   WEIMIN = 0.0010     energy-eigenvalue tresh-hold
   EBREAK =  0.52E-08  absolut break condition
   DEPER  =   0.30     relativ break condition

   TIME   =   0.40     timestep for ELM

  volume/ion in A,a.u.               =      36.32       245.07
  Fermi-wavevector in a.u.,A,eV,Ry     =   1.028309  1.943222 14.387066  1.057419
  Thomas-Fermi vector in A             =   2.162299

 Write flags
   LWAVE  =      T    write WAVECAR
   LCHARG =      T    write CHGCAR
   LVTOT  =      F    write LOCPOT, total local potential
   LVHAR  =      F    write LOCPOT, Hartree potential only
   LELF   =      F    write electronic localiz. function (ELF)
   LORBIT =     10    0 simple, 1 ext, 2 COOP (PROOUT)

 Dipole corrections
[...]
       3d   -552.1268  4s   -156.6971  4p   -106.7327  4d    -34.0445
   6-  1s -31613.4434  2s  -4841.0154  2p  -4344.4125  3s   -957.2171  3p   -795.8751
       3d   -552.1268  4s   -156.6971  4p   -106.7327  4d    -34.0445
   7-  1s -31613.4434  2s  -4841.0154  2p  -4344.4125  3s   -957.2171  3p   -795.8751
       3d   -552.1268  4s   -156.6971  4p   -106.7327  4d    -34.0445
   8-  1s -31613.4434  2s  -4841.0154  2p  -4344.4125  3s   -957.2171  3p   -795.8751
       3d   -552.1268  4s   -156.6971  4p   -106.7327  4d    -34.0445

 E-fermi :   1.8410     XC(G=0):  -8.2989     alpha+bet : -6.9605

 k-point     1 :       0.0000    0.0000    0.0000
  band No.  band energies     occupation
      1      -9.0432      2.00000
      2      -8.6024      2.00000
      3      -8.6024      2.00000
      4      -8.6024      2.00000
      5      -6.3053      2.00000
      6      -6.3053      2.00000
      7      -6.3053      2.00000
      8      -6.1720      2.00000
      9      -6.1720      2.00000
     10      -6.1720      2.00000
     11      -6.1720      2.00000
     12      -6.1720      2.00000
     13      -6.1720      2.00000
     14      -6.1695      2.00000
     15      -6.1695      2.00000
     16      -6.1695      2.00000
     17      -6.0903      2.00000
     18      -6.0903      2.00000
     19      -6.0648      2.00000
     20      -6.0648      2.00000
     21      -6.0648      2.00000
     22      -5.6692      2.00000
     23      -5.6692      2.00000
     24      -5.6692      2.00000
     25      -2.2234      2.00000
     26      -2.2234      2.00000
     27      -2.2234      2.00000
     28       0.1268      2.00000
     29       0.1268      2.00000
     30       0.1268      2.00000
     31       0.1268      2.00000
     32       0.1268      2.00000
     33       0.1268      2.00000
     34       1.7796      2.00000
     35       1.7796      2.00000
     36       1.7796      2.00000
     37       2.3551      0.00000
     38       4.4477      0.00000
     39       4.4477      0.00000
     40       4.4477      0.00000
     41       4.5242      0.00000
     42       4.5242      0.00000
     43       4.5242      0.00000
     44       6.4187      0.00000
     45       6.4187      0.00000
     46       6.4187      0.00000
     47       9.1519      0.00000
     48      10.2806      0.00000

[...]

 soft charge-density along one line, spin component           1
         0         1         2         3         4         5         6         7         8         9
 total charge-density along one line

------------------------ aborting loop because EDIFF is reached ----------------------------------------

 total charge

# of ion     s       p       d       tot
  1        0.462   0.282   9.533  10.276
  2        0.462   0.282   9.533  10.276
  3        0.462   0.282   9.533  10.276
  4        0.462   0.282   9.533  10.276
  5        1.353   2.031   0.017   3.402
  6        1.353   2.031   0.017   3.402
  7        1.353   2.031   0.017   3.402
  8        1.353   2.031   0.017   3.402
tot        7.260   9.252  38.201  54.712

  FORCE on cell =-STRESS in cart. coord.  units (eV):
  Direction    XX          YY          ZZ          XY          YZ          ZX
  Alpha Z   188.19369   188.19369   188.19369
  Ewald   -1363.57655 -1363.57655 -1363.57655     0.00000    -0.00000     0.00000
  Hartree   688.03783   688.03783   688.03783    -0.00000    -0.00000    -0.00000
  E(xc)    -348.65068  -348.65068  -348.65068     0.00000    -0.00000    -0.00000
  Local    -101.62134  -101.62134  -101.62134     0.00000    -0.00000    -0.00000
  n-local   101.76121   106.08997   102.84105    -2.21988    -1.90666    -0.78836
  augment    25.15764    25.15764    25.15764     0.00000    -0.00000     0.00000
  Kinetic   805.41473   811.29772   810.14292    -2.03435    -2.11941    -0.83714
  Fock        0.00000     0.00000     0.00000     0.00000     0.00000     0.00000
  Total       0.05646     0.05646     0.05646    -0.00000     0.00000    -0.00000
  in kB       0.31136     0.31136     0.31136    -0.00000     0.00000    -0.00000

 VOLUME and BASIS-vectors are now :
  energy-cutoff  :      500.00
  volume of cell :      290.53
      direct lattice vectors                 reciprocal lattice vectors
     6.623110574  0.000000000  0.000000000     0.150986457  0.000000000  0.000000000
     0.000000000  6.623110574  0.000000000     0.000000000  0.150986457  0.000000000
     0.000000000  0.000000000  6.623110574     0.000000000  0.000000000  0.150986457

[...]

 FORCES acting on ions
    electron-ion (+dipol)            ewald-force                    non-local-force                 convergence-correction
   0.536E-13 0.727E-13 -.116E-12   -.568E-13 -.213E-13 -.711E-14   0.564E-17 -.358E-17 0.997E-17   -.143E-13 0.373E-13 -.141E-12
   0.483E-13 0.647E-12 0.486E-12   -.568E-13 -.213E-13 0.711E-14   0.694E-17 -.466E-17 0.434E-17   0.382E-14 0.656E-13 -.104E-12
   0.625E-12 0.818E-13 0.641E-11   -.568E-13 -.213E-13 0.711E-14   0.607E-17 -.228E-17 0.173E-17   0.495E-13 0.348E-13 -.931E-13
   0.614E-12 0.355E-11 0.203E-11   -.568E-13 -.213E-13 -.711E-14   -.152E-16 -.314E-17 -.390E-17   0.497E-13 0.660E-13 -.139E-12
   -.794E-13 0.234E-12 -.513E-13   0.633E-13 0.206E-13 -.631E-15   0.434E-17 0.282E-16 0.173E-16   0.141E-13 0.737E-14 -.239E-13
   -.102E-12 0.199E-12 -.140E-12   0.506E-13 0.220E-13 -.640E-15   0.113E-16 -.247E-16 0.121E-16   0.350E-13 0.162E-13 -.256E-13
   -.111E-12 0.556E-12 -.636E-12   0.500E-13 0.209E-13 0.548E-15   -.434E-17 -.239E-16 -.434E-17   0.351E-13 0.716E-14 -.374E-13
   -.633E-13 0.359E-13 -.755E-13   0.636E-13 0.222E-13 0.540E-15   -.954E-17 0.130E-17 -.260E-17   0.138E-13 0.175E-13 -.356E-13
   0.986E-12 0.538E-11 0.790E-11   0.147E-15 0.428E-15 -.183E-15   0.520E-17 -.327E-16 0.347E-16   0.187E-12 0.252E-12 -.599E-12

 POSITION                                       TOTAL-FORCE (eV/Angst)
      0.00000      0.00000      0.00000        -0.000000     -0.000000     -0.000000
      0.00000      3.31156      3.31156         0.000000      0.000000      0.000000
      3.31156      0.00000      3.31156         0.000000     -0.000000     -0.000000
      3.31156      3.31156      0.00000        -0.000000      0.000000      0.000000
      1.65578      1.65578      1.65578         0.000000     -0.000000     -0.000000
      4.96733      4.96733      1.65578         0.000000     -0.000000     -0.000000
      4.96733      1.65578      4.96733         0.000000     -0.000000     -0.000000
      1.65578      4.96733      4.96733         0.000000     -0.000000     -0.000000
    total drift:                                0.000000      0.000000      0.000000

  FREE ENERGIE OF THE ION-ELECTRON SYSTEM (eV)
  free  energy   TOTEN  =       -19.24382623 eV

  energy  without entropy=      -19.24382623  energy(sigma->0) =      -19.24382623

 FEWALD executed in parallel

[...]

 eigenvalue-minimisations  :  1032
 total energy-change (2. order) :-0.7186318E-03  (-0.1485135E-02)
 number of electron      71.9999870 magnetization
 augmentation part       18.3572948 magnetization

[...]

 eigenvalue-minimisations  :  1016
 total energy-change (2. order) : 0.6052735E-03  (-0.1728817E-03)
 number of electron      71.9999870 magnetization
 augmentation part       18.3484112 magnetization

[...]

 Broyden mixing:
  rms(total) = 0.64661E-03    rms(broyden)= 0.64660E-03
  rms(prec ) = 0.69103E-03
  weight for this iteration     100.00

 eigenvalues of (default mixing * dielectric matrix)
  average eigenvalue GAMMA=   1.4592
  1.9978  1.7012  1.0690  1.0690

[...]

----------------------------------------- Iteration    2(   6)  ---------------------------------------

 eigenvalue-minimisations  :   520
 total energy-change (2. order) : 0.4891144E-06  (-0.6398093E-07)
 number of electron      71.9999870 magnetization
 augmentation part       18.3461735 magnetization

 Free energy of the ion-electron system (eV)
  alpha Z        PSCENC =       188.00160341
  Ewald energy   TEWEN  =     -4089.33128238
  -Hartree energ DENC   =     -2064.88539468
  -exchange      EXHF   =         0.00000000
  -V(xc)+E(xc)   XCENC  =       -91.17637785
  PAW double counting   =      6757.90185708    -6466.23350601
  entropy T*S    EENTRO =        -0.00000000
  eigenvalues    EBANDS =      -319.30721246
  atomic energy  EATOM  =      6065.78646317
  free energy    TOTEN  =       -19.24384972 eV

  energy without entropy =      -19.24384972  energy(sigma->0) =      -19.24384972

 the core state eigenenergies are
   1-  1s -26514.0320  2s  -3931.1956  2p  -3526.4511  3s   -728.0646  3p   -595.3539
       3d   -387.8048  4s   -100.2409  4p    -61.2980
   2-  1s -26514.0320  2s  -3931.1956  2p  -3526.4511  3s   -728.0646  3p   -595.3539
       3d   -387.8048  4s   -100.2409  4p    -61.2980
   3-  1s -26514.0320  2s  -3931.1956  2p  -3526.4511  3s   -728.0646  3p   -595.3539
       3d   -387.8048  4s   -100.2409  4p    -61.2980
   4-  1s -26514.0320  2s  -3931.1956  2p  -3526.4511  3s   -728.0646  3p   -595.3539
       3d   -387.8048  4s   -100.2409  4p    -61.2980
   5-  1s -31613.4511  2s  -4841.0230  2p  -4344.4201  3s   -957.2245  3p   -795.8825
       3d   -552.1343  4s   -156.7042  4p   -106.7397  4d    -34.0514
   6-  1s -31613.4511  2s  -4841.0230  2p  -4344.4201  3s   -957.2245  3p   -795.8825
       3d   -552.1343  4s   -156.7042  4p   -106.7397  4d    -34.0514
   7-  1s -31613.4511  2s  -4841.0230  2p  -4344.4201  3s   -957.2245  3p   -795.8825
       3d   -552.1343  4s   -156.7042  4p   -106.7397  4d    -34.0514
   8-  1s -31613.4511  2s  -4841.0230  2p  -4344.4201  3s   -957.2245  3p   -795.8825
       3d   -552.1343  4s   -156.7042  4p   -106.7397  4d    -34.0514

 E-fermi :   1.8317     XC(G=0):  -8.2946     alpha+bet : -6.9534

[...]

 k-point    10 :       0.5000    0.5000    0.5000
  band No.  band energies     occupation
      1      -8.7097      2.00000
      2      -8.7097      2.00000
      3      -8.7097      2.00000
      4      -8.7097      2.00000
      5      -6.2594      2.00000
      6      -6.2594      2.00000
      7      -6.2594      2.00000
      8      -6.2594      2.00000
      9      -6.2594      2.00000
     10      -6.2594      2.00000
     11      -6.2594      2.00000
     12      -6.2594      2.00000
     13      -6.0896      2.00000
     14      -6.0896      2.00000
     15      -6.0896      2.00000
     16      -6.0896      2.00000
     17      -6.0896      2.00000
     18      -6.0896      2.00000
     19      -6.0896      2.00000
     20      -6.0896      2.00000
     21      -5.7950      2.00000
     22      -5.7950      2.00000
     23      -5.7950      2.00000
     24      -5.7950      2.00000
     25      -2.2926      2.00000
     26      -2.2926      2.00000
     27      -2.2926      2.00000
     28      -2.2926      2.00000
     29       1.0889      2.00000
     30       1.0889      2.00000
     31       1.0889      2.00000
     32       1.0889      2.00000
     33       1.0889      2.00000
     34       1.0889      2.00000
     35       1.0889      2.00000
     36       1.0889      2.00000
     37       3.5211      0.00000
     38       3.5211      0.00000
     39       3.5211      0.00000
     40       3.5211      0.00000
     41       6.9780      0.00000
     42       6.9780      0.00000
     43       6.9780      0.00000
     44       6.9780      0.00000
     45       6.9780      0.00000
     46       6.9780      0.00000
     47       6.9780      0.00000
     48       6.9780      0.00000

 soft charge-density along one line, spin component           1
         0         1         2         3         4         5         6         7         8         9
 total charge-density along one line

------------------------ aborting loop because EDIFF is reached ----------------------------------------

[...]

  FORCE on cell =-STRESS in cart. coord.  units (eV):
  Direction    XX          YY          ZZ          XY          YZ          ZX
  Alpha Z   188.00160   188.00160   188.00160
  Ewald   -1363.11245 -1363.11245 -1363.11245     0.00000    -0.00000    -0.00000
  Hartree   688.30499   688.30499   688.30499    -0.00000    -0.00000    -0.00000
  E(xc)    -348.63415  -348.63415  -348.63415     0.00000    -0.00000    -0.00000
  Local    -102.10951  -102.10951  -102.10951     0.00000     0.00000    -0.00000
  n-local   101.68182   106.01318   102.76789    -2.21989    -1.90629    -0.78839
  augment    25.15407    25.15407    25.15407    -0.00000    -0.00000    -0.00000
  Kinetic   805.38027   811.26007   810.10443    -2.03421    -2.11831    -0.83688
  Fock        0.00000     0.00000     0.00000     0.00000     0.00000     0.00000
  Total       0.00710     0.00710     0.00710    -0.00000     0.00000    -0.00000
  in kB       0.03913     0.03913     0.03913    -0.00000     0.00000    -0.00000

 VOLUME and BASIS-vectors are now :
  energy-cutoff  :      500.00
  volume of cell :      290.82
      direct lattice vectors                 reciprocal lattice vectors
     6.625365530  0.000000000 -0.000000000     0.150935068  0.000000000  0.000000000
    -0.000000000  6.625365530  0.000000000    -0.000000000  0.150935068 -0.000000000
    -0.000000000  0.000000000  6.625365530     0.000000000 -0.000000000  0.150935068

  length of vectors
     6.625365530  6.625365530  6.625365530     0.150935068  0.150935068  0.150935068

 FORCES acting on ions
    electron-ion (+dipol)            ewald-force                    non-local-force                 convergence-correction
   0.408E-13 0.672E-13 -.960E-13   0.142E-13 0.000E+00 -.711E-14   0.347E-17 0.672E-17 -.217E-17   0.783E-13 0.102E-12 -.869E-13
   -.290E-13 0.670E-12 0.488E-12   0.142E-13 0.000E+00 0.000E+00   -.650E-17 0.976E-17 0.434E-18   0.722E-13 0.109E-12 -.178E-13
   0.582E-12 0.711E-13 0.641E-11   0.142E-13 0.000E+00 0.000E+00   0.434E-18 0.167E-16 -.130E-17   0.727E-13 0.107E-12 -.326E-13
   0.548E-12 0.358E-11 0.205E-11   0.142E-13 0.000E+00 -.711E-14   -.867E-18 0.152E-17 0.434E-18   0.725E-13 0.110E-12 -.118E-12
   -.815E-13 0.185E-12 -.257E-13   -.142E-13 -.365E-16 0.699E-14   -.434E-17 -.195E-16 -.781E-17   0.780E-13 0.405E-13 -.231E-14
   -.125E-12 0.170E-12 -.131E-12   -.146E-13 0.795E-15 0.698E-14   -.165E-16 0.651E-17 -.954E-17   0.372E-13 0.488E-13 -.295E-14
   -.113E-12 0.531E-12 -.623E-12   -.129E-13 -.841E-15 0.731E-14   -.607E-17 0.607E-17 0.121E-16   0.340E-13 0.456E-13 0.683E-14
   -.107E-12 0.287E-13 -.729E-13   -.153E-13 -.953E-17 0.730E-14   0.373E-16 0.330E-16 0.121E-16   0.770E-13 0.457E-13 0.862E-14
   0.715E-12 0.530E-11 0.800E-11   0.942E-17 -.920E-16 0.144E-13   0.693E-17 0.607E-16 0.434E-17   0.522E-12 0.608E-12 -.245E-12

 POSITION                                       TOTAL-FORCE (eV/Angst)
     -0.00000     -0.00000     -0.00000        -0.000000     -0.000000     -0.000000
     -0.00000      3.31268      3.31268         0.000000     -0.000000     -0.000000
      3.31268      0.00000      3.31268        -0.000000     -0.000000      0.000000
      3.31268      3.31268     -0.00000         0.000000      0.000000      0.000000
      1.65634      1.65634      1.65634         0.000000     -0.000000      0.000000
      4.96902      4.96902      1.65634         0.000000     -0.000000      0.000000
      4.96902      1.65634      4.96902         0.000000     -0.000000      0.000000
      1.65634      4.96902      4.96902         0.000000     -0.000000      0.000000
    total drift:                                0.000000      0.000000      0.000000

  FREE ENERGIE OF THE ION-ELECTRON SYSTEM (eV)
  free  energy   TOTEN  =       -19.24384972 eV

  energy  without entropy=      -19.24384972  energy(sigma->0) =      -19.24384972

 d Force = 0.0000000E+00[ 0.000E+00, 0.000E+00]  d Energy = 0.2349246E-04-0.235E-04
 d Force = 0.0000000E+00[ 0.000E+00, 0.000E+00]  d Ewald  =-0.1392286E+01 0.139E+01

 Steepest descent step on ions:
 trial-energy change:   -0.000023  1 .order   -0.000032   -0.000058   -0.000007
  (g-gl).g = 0.577E-04      g.g   = 0.577E-04  gl.gl    = 0.000E+00
 g(Force)  = 0.477E-57   g(Stress)= 0.577E-04 ortho     = 0.000E+00
 gamma     =   0.00000
 trial     =   1.00000
 opt step  =   1.14389  (harmonic =   1.14389) maximal distance =0.00000000
 next E    =   -19.243859   (d E  =  -0.00003)

 reached required accuracy - stopping structural energy minimisation
 writing wavefunctions

 total charge

# of ion     s       p       d       tot
  1        0.461   0.282   9.533  10.276
  2        0.461   0.282   9.533  10.276
  3        0.461   0.282   9.533  10.276
  4        0.461   0.282   9.533  10.276
  5        1.353   2.030   0.017   3.401
  6        1.353   2.030   0.017   3.401
  7        1.353   2.030   0.017   3.401
  8        1.353   2.030   0.017   3.401
tot        7.259   9.248  38.201  54.708