 vasp.5.3.5 31Mar14 (build Mar 26 2015 15:03:36) complex

 executed on             LinuxIFC date 2015.12.16  12:20:42

 INCAR:
 POTCAR:    PAW_PBE Ga 08Apr2002
 POTCAR:    PAW_PBE As 22Sep2009

 POTCAR:    PAW_PBE Ga 08Apr2002
   VRHFIN =Ga: s2p1

   TITEL  = PAW_PBE Ga 08Apr2002
   POMASS =   69.723; ZVAL   =    3.000    mass and valenz
   ENMAX  =  134.678; ENMIN  =  101.009 eV

 POTCAR:    PAW_PBE As 22Sep2009
   VRHFIN =As: s2p3

   TITEL  = PAW_PBE As 22Sep2009
   POMASS =   74.922; ZVAL   =    5.000    mass and valenz
   ENMAX  =  208.702; ENMIN  =  156.526 eV

  PAW_PBE Ga 08Apr2002                  :
  PAW_PBE As 22Sep2009                  :

 POSCAR: GaAs
  positions in direct lattice
 exchange correlation table for  LEXCH =        8
   RHO(1)=    0.500       N(1)  =     2000
   RHO(2)=  100.500       N(2)  =     4000

 ion  position               nearest neighbor table
   1  0.000  0.000  0.000-   2 2.45   2 2.45   2 2.45   2 2.45
   2  0.250  0.250  0.250-   1 2.45   1 2.45   1 2.45   1 2.45

  LATTYP: Found a face centered cubic cell.
 ALAT       =     5.6500000000

  Lattice vectors:

 A1 = (   2.8250000000,   2.8250000000,   0.0000000000)
 A2 = (   2.8250000000,   0.0000000000,  -2.8250000000)
 A3 = (   0.0000000000,   2.8250000000,  -2.8250000000)

Analysis of symmetry for initial positions (statically):
 Subroutine PRICEL returns:
 Original cell was already a primitive cell.

 Routine SETGRP: Setting up the symmetry group for a
 face centered cubic supercell.

 Subroutine GETGRP returns: Found 24 space group operations
 (whereof 24 operations were pure point group operations)
 out of a pool of 48 trial point group operations.

The static configuration has the point symmetry T_d .

Analysis of symmetry for dynamics (positions and initial velocities):
 Subroutine PRICEL returns:
 Original cell was already a primitive cell.

 Routine SETGRP: Setting up the symmetry group for a
 face centered cubic supercell.

 Subroutine GETGRP returns: Found 24 space group operations
 (whereof 24 operations were pure point group operations)
 out of a pool of 48 trial point group operations.

The dynamic configuration has the point symmetry T_d .

 KPOINTS: Automatic mesh

Automatic generation of k-mesh.
Space group operators:
 irot       det(A)        alpha          n_x          n_y          n_z        tau_x        tau_y        tau_z
    1     1.000000     0.000000     1.000000     0.000000     0.000000     0.000000     0.000000     0.000000
    2     1.000000   120.000000    -0.577350    -0.577350     0.577350     0.000000     0.000000     0.000000
    3     1.000000   120.000000     0.577350     0.577350    -0.577350     0.000000     0.000000     0.000000
    4    -1.000000    90.000000    -1.000000     0.000000     0.000000     0.000000     0.000000     0.000000
    5    -1.000000   180.000000     0.707107     0.707107     0.000000     0.000000     0.000000     0.000000
    6    -1.000000    90.000000     0.000000     1.000000     0.000000     0.000000     0.000000     0.000000
    7     1.000000   180.000000     1.000000     0.000000     0.000000     0.000000     0.000000     0.000000
    8     1.000000   120.000000     0.577350     0.577350     0.577350     0.000000     0.000000     0.000000
    9     1.000000   120.000000    -0.577350     0.577350     0.577350     0.000000     0.000000     0.000000
   10    -1.000000    90.000000     1.000000     0.000000     0.000000     0.000000     0.000000     0.000000
   11    -1.000000    90.000000     0.000000     0.000000     1.000000     0.000000     0.000000     0.000000
   12    -1.000000   180.000000     0.707107     0.000000    -0.707107     0.000000     0.000000     0.000000
   13     1.000000   120.000000     0.577350    -0.577350    -0.577350     0.000000     0.000000     0.000000
   14     1.000000   120.000000     0.577350    -0.577350     0.577350     0.000000     0.000000     0.000000
   15     1.000000   180.000000     0.000000     0.000000     1.000000     0.000000     0.000000     0.000000
   16    -1.000000    90.000000     0.000000    -1.000000     0.000000     0.000000     0.000000     0.000000
   17    -1.000000   180.000000     0.000000    -0.707107     0.707107     0.000000     0.000000     0.000000
   18    -1.000000    90.000000     0.000000     0.000000    -1.000000     0.000000     0.000000     0.000000
   19     1.000000   120.000000    -0.577350    -0.577350    -0.577350     0.000000     0.000000     0.000000
   20     1.000000   180.000000     0.000000     1.000000     0.000000     0.000000     0.000000     0.000000
   21     1.000000   120.000000    -0.577350     0.577350    -0.577350     0.000000     0.000000     0.000000
   22    -1.000000   180.000000     0.707107    -0.707107     0.000000     0.000000     0.000000     0.000000
   23    -1.000000   180.000000     0.000000     0.707107     0.707107     0.000000     0.000000     0.000000
   24    -1.000000   180.000000     0.707107     0.000000     0.707107     0.000000     0.000000     0.000000

 Subroutine IBZKPT returns following result:

 Found     16 irreducible k-points:

 Following reciprocal coordinates:
            Coordinates               Weight
  0.000000  0.000000  0.000000      1.000000
  0.166667  0.000000  0.000000      8.000000
  0.333333  0.000000  0.000000      8.000000
  0.500000  0.000000  0.000000      4.000000
  0.166667  0.166667  0.000000      6.000000
  0.333333  0.166667  0.000000     24.000000
  0.500000  0.166667  0.000000     24.000000
 -0.333333  0.166667  0.000000     24.000000
 -0.166667  0.166667  0.000000     12.000000
  0.333333  0.333333  0.000000      6.000000
  0.500000  0.333333  0.000000     24.000000
 -0.333333  0.333333  0.000000     12.000000
  0.500000  0.500000  0.000000      3.000000
  0.500000  0.333333  0.166667     24.000000
 -0.333333  0.333333  0.166667     24.000000
 -0.333333  0.500000  0.166667     12.000000

 Following cartesian coordinates:
            Coordinates               Weight
  0.000000  0.000000  0.000000      1.000000
  0.166667  0.166667  0.166667      8.000000
  0.333333  0.333333  0.333333      8.000000
  0.500000  0.500000  0.500000      4.000000
  0.333333  0.000000  0.000000      6.000000
  0.500000  0.166667  0.166667     24.000000
  0.666667  0.333333  0.333333     24.000000
 -0.166667 -0.500000 -0.500000     24.000000
  0.000000 -0.333333 -0.333333     12.000000
  0.666667  0.000000  0.000000      6.000000
  0.833333  0.166667  0.166667     24.000000
  0.000000 -0.666667 -0.666667     12.000000
  1.000000  0.000000  0.000000      3.000000
  0.666667  0.333333 -0.000000     24.000000
 -0.166667 -0.500000 -0.833333     24.000000
  0.000000 -0.666667 -1.000000     12.000000

 I would recommend the setting:
   dimension x,y,z NGX =    22 NGY =   22 NGZ =   22
 SYSTEM =  Name
 POSCAR =  GaAs

 Startparameter for this run:
   NWRITE =      2    write-flag & timer
   PREC   = normal    normal or accurate (medium, high low for compatibility)
   ISTART =      0    job   : 0-new  1-cont  2-samecut
   ICHARG =      2    charge: 1-file 2-atom 10-const
   ISPIN  =      1    spin polarized calculation?
   LNONCOLLINEAR =      F non collinear calculations
   LSORBIT =      F    spin-orbit coupling
   INIWAV =      1    electr: 0-lowe 1-rand  2-diag
   LASPH  =      F    aspherical Exc in radial PAW
   METAGGA=      F    non-selfconsistent MetaGGA calc.

 Electronic Relaxation 1
   ENCUT  =  500.0 eV  36.75 Ry    6.06 a.u.   7.28  7.28  7.28*2*pi/ulx,y,z
   ENINI  =  500.0     initial cutoff
   ENAUG  =  462.8 eV  augmentation charge cutoff
   NELM   =     60;   NELMIN=  2; NELMDL=  0     # of ELM steps
   EDIFF  = 0.1E-05   stopping-criterion for ELM
   LREAL  =      F    real-space projection
   NLSPLINE    = F    spline interpolate recip. space projectors
   LCOMPAT=      F    compatible to vasp.4.4
   GGA_COMPAT  = T    GGA compatible to vasp.4.4-vasp.4.6
   LMAXPAW     = -100 max onsite density
   LMAXMIX     =    2 max onsite mixed and CHGCAR
   VOSKOWN=      0    Vosko Wilk Nusair interpolation
   ROPT   =    0.00000   0.00000
 Ionic relaxation
   EDIFFG = -.5E-02   stopping-criterion for IOM
   NSW    =    100    number of steps for IOM
   NBLOCK =      1;   KBLOCK =    100    inner block; outer block
   IBRION =      2    ionic relax: 0-MD 1-quasi-New 2-CG
   NFREE  =      1    steps in history (QN), initial steepest desc. (CG)
   ISIF   =      3    stress and relaxation
   IWAVPR =     11    prediction:  0-non 1-charg 2-wave 3-comb
   ISYM   =      2    0-nonsym 1-usesym 2-fastsym
   LCORR  =      T    Harris-Foulkes like correction to forces

   POTIM  = 0.5000    time-step for ionic-motion
   TEIN   =    0.0    initial temperature
   TEBEG  =    0.0;   TEEND  =   0.0 temperature during run
   SMASS  =  -3.00    Nose mass-parameter (am)
   estimated Nose-frequenzy (Omega)   =  0.10E-29 period in steps =****** mass=  -0.365E-27a.u.
   SCALEE = 1.0000    scale energy and forces
   NPACO  =    256;   APACO  = 16.0  distance and # of slots for P.C.
   PSTRESS=    0.0 pullay stress

  Mass of Ions in am
   POMASS =  69.72 74.92
  Ionic Valenz
   ZVAL   =   3.00  5.00
  Atomic Wigner-Seitz radii
  virtual crystal weights
   VCA    =   1.00  1.00
   NELECT =       8.0000    total number of electrons
   NUPDOWN=      -1.0000    fix difference up-down

 DOS related values:
   EMIN   =  10.00;   EMAX   =-10.00  energy-range for DOS
   EFERMI =   0.00
   ISMEAR =     0;   SIGMA  =   0.01  broadening in eV -4-tet -1-fermi 0-gaus

 Electronic relaxation 2 (details)
   IALGO  =     38    algorithm
   LDIAG  =      T    sub-space diagonalisation (order eigenvalues)
   LSUBROT=      F    optimize rotation matrix (better conditioning)
   TURBO    =      0    0=normal 1=particle mesh
   IRESTART =      0    0=no restart 2=restart with 2 vectors
   NREBOOT  =      0    no. of reboots
   NMIN     =      0    reboot dimension
   EREF     =   0.00    reference energy to select bands
   IMIX   =      4    mixing-type and parameters
     AMIX     =   0.40;   BMIX     =  1.00
     AMIX_MAG =   1.60;   BMIX_MAG =  1.00
     AMIN     =   0.01
     WC   =   100.;   INIMIX=   1;  MIXPRE=   1;  MAXMIX= -45

 Intra band minimization:
   WEIMIN = 0.0010     energy-eigenvalue tresh-hold
   EBREAK =  0.31E-07  absolut break condition
   DEPER  =   0.30     relativ break condition

   TIME   =   0.40     timestep for ELM

  volume/ion in A,a.u.               =      22.55       152.14
  Fermi-wavevector in a.u.,A,eV,Ry     =   0.919905  1.738369 11.513596  0.846225
  Thomas-Fermi vector in A             =   2.045151

 Write flags
   LWAVE  =      T    write WAVECAR
   LCHARG =      T    write CHGCAR
   LVTOT  =      F    write LOCPOT, total local potential
   LVHAR  =      F    write LOCPOT, Hartree potential only
   LELF   =      F    write electronic localiz. function (ELF)
   LORBIT =     10    0 simple, 1 ext, 2 COOP (PROOUT)

 Dipole corrections
   LMONO  =      F    monopole corrections only (constant potential shift)
   LDIPOL =      F    correct potential (dipole corrections)
   IDIPOL =      0    1-x, 2-y, 3-z, 4-all directions
   EPSILON=  1.0000000 bulk dielectric constant

[...]
   RTIME   =    0.100 relaxation time in fs

 Orbital magnetization related:
   ORBITALMAG=     F  switch on orbital magnetization
   LCHIMAG   =     F  perturbation theory with respect to B field
   DQ        =  0.001000  dq finite difference perturbation B field

 conjugate gradient relaxation of ions
 charge density and potential will be updated during run
 non-spin polarized calculation
 Variant of blocked Davidson
 Davidson routine will perform the subspace rotation
 perform sub-space diagonalisation
    after iterative eigenvector-optimisation
 modified Broyden-mixing scheme, WC =      100.0
 initial mixing is a Kerker type mixing with AMIX =  0.4000 and BMIX =      1.0000
 Hartree-type preconditioning will be used
 using additional bands            4
 reciprocal scheme for non local part
 use partial core corrections
 calculate Harris-corrections to forces
   (improved forces if not selfconsistent)
 use gradient corrections
 use of overlap-Matrix (Vanderbilt PP)
 Gauss-broadening in eV      SIGMA  =   0.01

  energy-cutoff  :      500.00
  volume of cell :       45.09
      direct lattice vectors                 reciprocal lattice vectors
     2.825000000  2.825000000  0.000000000     0.176991150  0.176991150  0.176991150
     2.825000000  0.000000000 -2.825000000     0.176991150 -0.176991150 -0.176991150
     0.000000000  2.825000000 -2.825000000    -0.176991150  0.176991150 -0.176991150

  length of vectors
     3.995153314  3.995153314  3.995153314     0.306557665  0.306557665  0.306557665

 k-points in units of 2pi/SCALE and weight: Automatic mesh
   0.00000000  0.00000000  0.00000000       0.005
   0.16666667  0.16666667  0.16666667       0.037
   0.33333333  0.33333333  0.33333333       0.037
   0.50000000  0.50000000  0.50000000       0.019
   0.33333333  0.00000000  0.00000000       0.028
   0.50000000  0.16666667  0.16666667       0.111
   0.66666667  0.33333333  0.33333333       0.111
  -0.16666667 -0.50000000 -0.50000000       0.111
   0.00000000 -0.33333333 -0.33333333       0.056
   0.66666667  0.00000000  0.00000000       0.028
   0.83333333  0.16666667  0.16666667       0.111
   0.00000000 -0.66666667 -0.66666667       0.056
   1.00000000  0.00000000  0.00000000       0.014
   0.66666667  0.33333333 -0.00000000       0.111
  -0.16666667 -0.50000000 -0.83333333       0.111
   0.00000000 -0.66666667 -1.00000000       0.056

 k-points in reciprocal lattice and weights: Automatic mesh
   0.00000000  0.00000000  0.00000000       0.005
   0.16666667  0.00000000  0.00000000       0.037
   0.33333333  0.00000000  0.00000000       0.037
   0.50000000  0.00000000  0.00000000       0.019
   0.16666667  0.16666667  0.00000000       0.028
   0.33333333  0.16666667  0.00000000       0.111
   0.50000000  0.16666667  0.00000000       0.111
  -0.33333333  0.16666667  0.00000000       0.111
  -0.16666667  0.16666667  0.00000000       0.056
   0.33333333  0.33333333  0.00000000       0.028
   0.50000000  0.33333333  0.00000000       0.111
  -0.33333333  0.33333333  0.00000000       0.056
   0.50000000  0.50000000  0.00000000       0.014
   0.50000000  0.33333333  0.16666667       0.111
  -0.33333333  0.33333333  0.16666667       0.111
  -0.33333333  0.50000000  0.16666667       0.056

 position of ions in fractional coordinates (direct lattice)
   0.00000000  0.00000000  0.00000000
   0.25000000  0.25000000  0.25000000

 position of ions in cartesian coordinates  (Angst):
   0.00000000  0.00000000  0.00000000
   1.41250000  1.41250000 -1.41250000

 k-point  1 :   0.0000 0.0000 0.0000  plane waves:    1139
 k-point  2 :   0.1667 0.0000 0.0000  plane waves:    1167
 k-point  3 :   0.3333 0.0000 0.0000  plane waves:    1149
 k-point  4 :   0.5000 0.0000 0.0000  plane waves:    1158
 k-point  5 :   0.1667 0.1667 0.0000  plane waves:    1154
 k-point  6 :   0.3333 0.1667 0.0000  plane waves:    1137
 k-point  7 :   0.5000 0.1667 0.0000  plane waves:    1145
 k-point  8 :  -0.3333 0.1667 0.0000  plane waves:    1144
 k-point  9 :  -0.1667 0.1667 0.0000  plane waves:    1147
 k-point 10 :   0.3333 0.3333 0.0000  plane waves:    1150
 k-point 11 :   0.5000 0.3333 0.0000  plane waves:    1149
 k-point 12 :  -0.3333 0.3333 0.0000  plane waves:    1141
 k-point 13 :   0.5000 0.5000 0.0000  plane waves:    1162
 k-point 14 :   0.5000 0.3333 0.1667  plane waves:    1151
 k-point 15 :  -0.3333 0.3333 0.1667  plane waves:    1144
 k-point 16 :  -0.3333 0.5000 0.1667  plane waves:    1142

 maximum and minimum number of plane-waves per node :      1167     1137

 maximum number of plane-waves:      1167
 maximum index in each direction:
   IXMAX=    7   IYMAX=    7   IZMAX=    7
   IXMIN=   -7   IYMIN=   -7   IZMIN=   -7

 WARNING: aliasing errors must be expected set NGX to  30 to avoid them
 WARNING: aliasing errors must be expected set NGY to  30 to avoid them
 WARNING: aliasing errors must be expected set NGZ to  30 to avoid them
 aliasing errors are usually negligible using standard VASP settings
 and one can safely disregard these warnings

 serial   3D FFT for wavefunctions
 parallel 3D FFT for charge:
    minimum data exchange during FFTs selected (reduces bandwidth)

 Broyden mixing: mesh for mixing (old mesh)
   NGX = 15   NGY = 15   NGZ = 15
  (NGX  = 48   NGY  = 48   NGZ  = 48)
  gives a total of   3375 points

 initial charge density was supplied:
 charge density of overlapping atoms calculated
 number of electron       8.0000000 magnetization
 keeping initial charge density in first step

 Maximum index for augmentation-charges         2713 (set IRDMAX)

 First call to EWALD:  gamma=   0.498
 Maximum number of real-space cells 3x 3x 3
 Maximum number of reciprocal cells 3x 3x 3

 FEWALD executed in parallel

----------------------------------------- Iteration    1(   1)  ---------------------------------------

 eigenvalue-minimisations  :   256
 total energy-change (2. order) : 0.1618565E+02  (-0.3302682E+03)
 number of electron       8.0000000 magnetization
 augmentation part        8.0000000 magnetization

 Free energy of the ion-electron system (eV)
  alpha Z        PSCENC =        18.96719227
  Ewald energy   TEWEN  =      -229.30500357
  -Hartree energ DENC   =       -17.58519113
  -exchange      EXHF   =         0.00000000
  -V(xc)+E(xc)   XCENC  =       -30.96900610
  PAW double counting   =       209.13017684     -163.99810489
  entropy T*S    EENTRO =        -0.00057134
  eigenvalues    EBANDS =         0.89125507
  atomic energy  EATOM  =       229.05490760
  free energy    TOTEN  =        16.18565476 eV

  energy without entropy =       16.18622611  energy(sigma->0) =       16.18594044

[...]

 eigenvalue-minimisations  :   384
 total energy-change (2. order) :-0.2410778E+02  (-0.2329083E+02)
 number of electron       8.0000000 magnetization
 augmentation part        8.0000000 magnetization

[...]

 Broyden mixing:
  rms(total) = 0.38850E+00    rms(broyden)= 0.38850E+00
  rms(prec ) = 0.81196E+00
  weight for this iteration     100.00

[...]

 eigenvalues of (default mixing * dielectric matrix)
  average eigenvalue GAMMA=   2.2846
  2.2846

[...]

 the core state eigenenergies are
   1-  1s -10220.4404  2s  -1253.9079  2p  -1090.3570  3s   -140.3047  3p    -91.0560
       3d    -11.4707
   2-  1s -11709.1083  2s  -1477.7073  2p  -1294.5310  3s   -181.7030  3p   -125.0830
       3d    -32.1116

 E-fermi :   2.8778     XC(G=0):  -9.1885     alpha+bet : -8.5764

 k-point     1 :       0.0000    0.0000    0.0000
  band No.  band energies     occupation
      1      -9.9453      2.00000
      2       2.7729      2.00000
      3       2.7729      2.00000
      4       2.7729      2.00000
      5       3.3647      0.00000
      6       6.5325      0.00000
      7       6.5325      0.00000
      8       6.5325      0.00000

[...]

 soft charge-density along one line, spin component           1
         0         1         2         3         4         5         6         7         8         9
 total charge-density along one line

------------------------ aborting loop because EDIFF is reached ----------------------------------------

 total charge

# of ion     s       p       d       tot
  1        1.085   1.211   0.141   2.436
  2        1.207   1.611   0.028   2.847
tot        2.292   2.822   0.169   5.283

  FORCE on cell =-STRESS in cart. coord.  units (eV):
  Direction    XX          YY          ZZ          XY          YZ          ZX
  Alpha Z    18.96719    18.96719    18.96719
  Ewald     -76.43503   -76.43503   -76.43503     0.00000    -0.00000    -0.00000
  Hartree     7.06556     7.06556     7.06556     0.00000    -0.00000    -0.00000
  E(xc)     -30.21882   -30.21882   -30.21882    -0.00000     0.00000     0.00000
  Local     -29.98183   -29.98183   -29.98183     0.00000    -0.00000    -0.00000
  n-local    42.74508    45.86202    45.36072    -0.77673    -1.50665    -0.48997
  augment     1.89636     1.89636     1.89636    -0.00001     0.00001     0.00001
  Kinetic    61.75970    66.50932    67.43588    -1.56190    -4.20198    -1.29048
  Fock        0.00000     0.00000     0.00000     0.00000     0.00000     0.00000
  Total       1.18433     1.18433     1.18433    -0.00000    -0.00000     0.00000
  in kB      42.08229    42.08229    42.08229    -0.00000    -0.00000     0.00000

 VOLUME and BASIS-vectors are now :
  energy-cutoff  :      500.00
  volume of cell :       45.09
      direct lattice vectors                 reciprocal lattice vectors
     2.825000000  2.825000000  0.000000000     0.176991150  0.176991150  0.176991150
     2.825000000  0.000000000 -2.825000000     0.176991150 -0.176991150 -0.176991150
     0.000000000  2.825000000 -2.825000000    -0.176991150  0.176991150 -0.176991150

[...]

 FORCES acting on ions
    electron-ion (+dipol)            ewald-force                    non-local-force                 convergence-correction
   0.263E-06 0.218E-06 -.218E-06   -.783E-14 -.214E-14 0.561E-14   -.520E-17 -.824E-17 0.477E-17   -.129E-11 -.129E-11 0.129E-11
   0.787E-07 0.735E-07 -.735E-07   0.775E-14 0.197E-14 -.565E-14   0.451E-16 0.763E-16 -.104E-15   0.626E-10 0.626E-10 -.626E-10
   0.341E-06 0.292E-06 -.292E-06   -.783E-16 -.164E-15 -.387E-16   0.399E-16 0.681E-16 -.993E-16   0.613E-10 0.613E-10 -.613E-10

 POSITION                                       TOTAL-FORCE (eV/Angst)
      0.00000      0.00000      0.00000         0.000000      0.000000     -0.000000
      1.41250      1.41250     -1.41250        -0.000000     -0.000000      0.000000
    total drift:                                0.000000      0.000000     -0.000000

  FREE ENERGIE OF THE ION-ELECTRON SYSTEM (eV)
  free  energy   TOTEN  =        -8.22840634 eV

  energy  without entropy=       -8.22840634  energy(sigma->0) =       -8.22840634

[...]

 d Force = 0.0000000E+00[ 0.000E+00, 0.000E+00]  d Energy = 0.2767272E-01-0.277E-01
 d Force = 0.0000000E+00[ 0.000E+00, 0.000E+00]  d Ewald  =-0.6368777E+01 0.637E+01

 Steepest descent step on ions:
 trial-energy change:   -0.027673  1 .order   -0.033387   -0.101501    0.034727
  (g-gl).g = 0.102E+00      g.g   = 0.102E+00  gl.gl    = 0.000E+00
 g(Force)  = 0.263E-47   g(Stress)= 0.102E+00 ortho     = 0.000E+00
 gamma     =   0.00000
 trial     =   1.00000
 opt step  =   0.69138  (harmonic =   0.74508) maximal distance =0.00000000
 next E    =    -8.261606   (d E  =  -0.03320)

 FEWALD executed in parallel

[...]

 eigenvalue-minimisations  :   336
 total energy-change (2. order) : 0.8698352E-05  (-0.3133059E-05)
 number of electron       7.9999997 magnetization
 augmentation part       -1.2863143 magnetization

 Broyden mixing:
  rms(total) = 0.20523E-02    rms(broyden)= 0.20523E-02
  rms(prec ) = 0.21503E-02
  weight for this iteration     100.00

 eigenvalues of (default mixing * dielectric matrix)
  average eigenvalue GAMMA=   2.2117
  3.8756  1.0814  1.4341  2.4556

[...]

----------------------------------------- Iteration    3(   6)  ---------------------------------------

 eigenvalue-minimisations  :   312
 total energy-change (2. order) :-0.2421552E-07  (-0.3104959E-06)
 number of electron       7.9999997 magnetization
 augmentation part       -1.2863143 magnetization

 Free energy of the ion-electron system (eV)
  alpha Z        PSCENC =        17.88629782
  Ewald energy   TEWEN  =      -224.86369100
  -Hartree energ DENC   =       -22.25623903
  -exchange      EXHF   =         0.00000000
  -V(xc)+E(xc)   XCENC  =       -30.43042687
  PAW double counting   =       459.66517350     -414.90418176
  entropy T*S    EENTRO =        -0.00000000
  eigenvalues    EBANDS =       -22.41380629
  atomic energy  EATOM  =       229.05490760
  free energy    TOTEN  =        -8.26196602 eV

  energy without entropy =       -8.26196602  energy(sigma->0) =       -8.26196602

 the core state eigenenergies are
   1-  1s -10221.1015  2s  -1254.5341  2p  -1090.9889  3s   -140.8357  3p    -91.5822
       3d    -11.9699
   2-  1s -11709.6473  2s  -1478.2202  2p  -1295.0478  3s   -182.1652  3p   -125.5434
       3d    -32.5644

 E-fermi :   2.4070     XC(G=0):  -8.9491     alpha+bet : -8.0876

[...]

 k-point    16 :      -0.3333    0.5000    0.1667
  band No.  band energies     occupation
      1      -7.8382      2.00000
      2      -4.1079      2.00000
      3      -0.7984      2.00000
      4      -0.6412      2.00000
      5       5.5878      0.00000
      6       5.6719      0.00000
      7       9.2098      0.00000
      8       9.5289      0.00000

 soft charge-density along one line, spin component           1
         0         1         2         3         4         5         6         7         8         9
 total charge-density along one line

------------------------ aborting loop because EDIFF is reached ----------------------------------------

[...]

  FORCE on cell =-STRESS in cart. coord.  units (eV):
  Direction    XX          YY          ZZ          XY          YZ          ZX
  Alpha Z    17.88630    17.88630    17.88630
  Ewald     -74.95459   -74.95459   -74.95459    -0.00000     0.00000     0.00000
  Hartree     7.41982     7.41982     7.41982     0.00000    -0.00000    -0.00000
  E(xc)     -29.83152   -29.83152   -29.83152    -0.00000     0.00000     0.00000
  Local     -30.24803   -30.24803   -30.24803     0.00001    -0.00001    -0.00001
  n-local    41.74367    44.89383    44.38208    -0.75232    -1.48116    -0.47226
  augment     1.83809     1.83809     1.83809    -0.00001     0.00001     0.00001
  Kinetic    60.39469    65.78655    66.45798    -1.61532    -4.19569    -1.31141
  Fock        0.00000     0.00000     0.00000     0.00000     0.00000     0.00000
  Total      -0.00366    -0.00366    -0.00366    -0.00000    -0.00000     0.00000
  in kB      -0.12280    -0.12280    -0.12280    -0.00000    -0.00000     0.00000

 VOLUME and BASIS-vectors are now :
  energy-cutoff  :      500.00
  volume of cell :       47.82
      direct lattice vectors                 reciprocal lattice vectors
     2.880796950  2.880796950  0.000000000     0.173563083  0.173563083  0.173563083
     2.880796950  0.000000000 -2.880796950     0.173563083 -0.173563083 -0.173563083
    -0.000000000  2.880796950 -2.880796950    -0.173563083  0.173563083 -0.173563083

  length of vectors
     4.074062116  4.074062116  4.074062116     0.300620078  0.300620078  0.300620078

 FORCES acting on ions
    electron-ion (+dipol)            ewald-force                    non-local-force                 convergence-correction
   0.178E-06 0.111E-06 -.111E-06   0.719E-14 0.467E-14 -.608E-14   -.214E-20 -.434E-18 -.217E-17   -.597E-09 -.597E-09 0.597E-09
   0.128E-06 0.139E-06 -.139E-06   -.677E-14 -.464E-14 0.604E-14   -.676E-16 -.347E-16 0.694E-16   -.699E-09 -.699E-09 0.699E-09
   0.306E-06 0.250E-06 -.250E-06   0.421E-15 0.321E-16 -.438E-16   -.676E-16 -.351E-16 0.672E-16   -.130E-08 -.130E-08 0.130E-08

 POSITION                                       TOTAL-FORCE (eV/Angst)
      0.00000      0.00000     -0.00000        -0.000000     -0.000000      0.000000
      1.44040      1.44040     -1.44040         0.000000      0.000000     -0.000000
    total drift:                                0.000000      0.000000     -0.000000

  FREE ENERGIE OF THE ION-ELECTRON SYSTEM (eV)
  free  energy   TOTEN  =        -8.26196602 eV

  energy  without entropy=       -8.26196602  energy(sigma->0) =       -8.26196602

 d Force = 0.0000000E+00[ 0.000E+00, 0.000E+00]  d Energy = 0.5886955E-02-0.589E-02
 d Force = 0.0000000E+00[ 0.000E+00, 0.000E+00]  d Ewald  = 0.1927464E+01-0.193E+01

 reached required accuracy - stopping structural energy minimisation
 writing wavefunctions

 total charge

# of ion     s       p       d       tot
  1        1.080   1.123   0.123   2.326
  2        1.212   1.568   0.025   2.805
tot        2.293   2.690   0.148   5.131