 vasp.5.4.1 24Jun15 (build Nov 25 2015 16:01:35) complex

 executed on         CrayXC-Intel date 2016.05.09  11:25:07

 INCAR:
 POTCAR:    PAW_PBE Cd 06Sep2000
 POTCAR:    PAW_PBE Te 08Apr2002

 POTCAR:    PAW_PBE Cd 06Sep2000
   VRHFIN =Cd : s2 d10

   TITEL  = PAW_PBE Cd 06Sep2000
   POMASS =  112.411; ZVAL   =   12.000    mass and valenz
   ENMAX  =  274.336; ENMIN  =  205.752 eV

 POTCAR:    PAW_PBE Te 08Apr2002
   VRHFIN =Te: s2p4

   TITEL  = PAW_PBE Te 08Apr2002
   POMASS =  127.600; ZVAL   =    6.000    mass and valenz
   ENMAX  =  174.982; ENMIN  =  131.236 eV

  PAW_PBE Cd 06Sep2000                  :
  PAW_PBE Te 08Apr2002                  :

 POSCAR: CdTe (ICSD, 295K, Rabadanov 2001)
  positions in direct lattice
  velocities in cartesian coordinates
 exchange correlation table for  LEXCH =        8
   RHO(1)=    0.500       N(1)  =     2000
   RHO(2)=  100.500       N(2)  =     4000

 ion  position               nearest neighbor table
   1  0.000  0.000  0.000-   2 2.81   2 2.81   2 2.81   2 2.81
   2  0.250  0.250  0.250-   1 2.81   1 2.81   1 2.81   1 2.81

  LATTYP: Found a face centered cubic cell.
 ALAT       =     6.4827000000

  Lattice vectors:

 A1 = (   3.2413500000,   3.2413500000,   0.0000000000)
 A2 = (   3.2413500000,   0.0000000000,  -3.2413500000)
 A3 = (   0.0000000000,   3.2413500000,  -3.2413500000)

Analysis of symmetry for initial positions (statically):
 Subroutine PRICEL returns:
 Original cell was already a primitive cell.

 Routine SETGRP: Setting up the symmetry group for a
 face centered cubic supercell.

 Subroutine GETGRP returns: Found 24 space group operations
 (whereof 24 operations were pure point group operations)
 out of a pool of 48 trial point group operations.

The static configuration has the point symmetry T_d .

Analysis of symmetry for dynamics (positions and initial velocities):
 Subroutine PRICEL returns:
 Original cell was already a primitive cell.

 Routine SETGRP: Setting up the symmetry group for a
 face centered cubic supercell.

 Subroutine GETGRP returns: Found 24 space group operations
 (whereof 24 operations were pure point group operations)
 out of a pool of 48 trial point group operations.

The dynamic configuration has the point symmetry T_d .

 Subroutine INISYM returns: Found 24 space group operations
 (whereof 24 operations are pure point group operations),
 and found     1 'primitive' translations

 KPOINTS: Automatically generated mesh SCF: 16 ste
  k-points in reciprocal lattice
Space group operators:
 irot       det(A)        alpha          n_x          n_y          n_z        tau_x        tau_y        tau_z
    1     1.000000     0.000000     1.000000     0.000000     0.000000     0.000000     0.000000     0.000000
    2     1.000000   120.000000    -0.577350    -0.577350     0.577350     0.000000     0.000000     0.000000
    3     1.000000   120.000000     0.577350     0.577350    -0.577350     0.000000     0.000000     0.000000
    4    -1.000000    90.000000    -1.000000     0.000000     0.000000     0.000000     0.000000     0.000000
    5    -1.000000   180.000000     0.707107     0.707107     0.000000     0.000000     0.000000     0.000000
    6    -1.000000    90.000000     0.000000     1.000000     0.000000     0.000000     0.000000     0.000000
    7     1.000000   180.000000     1.000000     0.000000     0.000000     0.000000     0.000000     0.000000
    8     1.000000   120.000000     0.577350     0.577350     0.577350     0.000000     0.000000     0.000000
    9     1.000000   120.000000    -0.577350     0.577350     0.577350     0.000000     0.000000     0.000000
   10    -1.000000    90.000000     1.000000     0.000000     0.000000     0.000000     0.000000     0.000000
   11    -1.000000    90.000000     0.000000     0.000000     1.000000     0.000000     0.000000     0.000000
   12    -1.000000   180.000000     0.707107     0.000000    -0.707107     0.000000     0.000000     0.000000
   13     1.000000   120.000000     0.577350    -0.577350    -0.577350     0.000000     0.000000     0.000000
   14     1.000000   120.000000     0.577350    -0.577350     0.577350     0.000000     0.000000     0.000000
   15     1.000000   180.000000     0.000000     0.000000     1.000000     0.000000     0.000000     0.000000
   16    -1.000000    90.000000     0.000000    -1.000000     0.000000     0.000000     0.000000     0.000000
   17    -1.000000   180.000000     0.000000    -0.707107     0.707107     0.000000     0.000000     0.000000
   18    -1.000000    90.000000     0.000000     0.000000    -1.000000     0.000000     0.000000     0.000000
   19     1.000000   120.000000    -0.577350    -0.577350    -0.577350     0.000000     0.000000     0.000000
   20     1.000000   180.000000     0.000000     1.000000     0.000000     0.000000     0.000000     0.000000
   21     1.000000   120.000000    -0.577350     0.577350    -0.577350     0.000000     0.000000     0.000000
   22    -1.000000   180.000000     0.707107    -0.707107     0.000000     0.000000     0.000000     0.000000
   23    -1.000000   180.000000     0.000000     0.707107     0.707107     0.000000     0.000000     0.000000
   24    -1.000000   180.000000     0.707107     0.000000     0.707107     0.000000     0.000000     0.000000

 Subroutine IBZKPT_HF returns following result:

 Found    345 k-points in 1st BZ
 the following    345 k-points will be used (e.g. in the exchange kernel)
 Following reciprocal coordinates:   # in IRBZ
  0.000000  0.000000  0.000000    0.00462963   1 t-inv F
  0.166667  0.000000  0.000000    0.00462963   2 t-inv F
  0.333333  0.000000  0.000000    0.00462963   3 t-inv F
  0.500000  0.000000  0.000000    0.00462963   4 t-inv F
  0.166667  0.166667  0.000000    0.00462963   5 t-inv F
  0.333333  0.166667  0.000000    0.00462963   6 t-inv F
  0.500000  0.166667  0.000000    0.00462963   7 t-inv F
 -0.333333  0.166667  0.000000    0.00462963   8 t-inv F
 -0.166667  0.166667  0.000000    0.00462963   9 t-inv F
  0.333333  0.333333  0.000000    0.00462963  10 t-inv F
  0.500000  0.333333  0.000000    0.00462963  11 t-inv F
 -0.333333  0.333333  0.000000    0.00462963  12 t-inv F
  0.500000  0.500000  0.000000    0.00462963  13 t-inv F
  0.500000  0.333333  0.166667    0.00462963  14 t-inv F
 -0.333333  0.333333  0.166667    0.00462963  15 t-inv F
 -0.333333  0.500000  0.166667    0.00462963  16 t-inv F
  0.000000  0.000000  0.000000    0.00000000  17 t-inv F
  0.016129  0.000000  0.016129    0.00000000  18 t-inv F
  0.032258  0.000000  0.032258    0.00000000  19 t-inv F
  0.048387  0.000000  0.048387    0.00000000  20 t-inv F
  0.064516  0.000000  0.064516    0.00000000  21 t-inv F
  0.080645  0.000000  0.080645    0.00000000  22 t-inv F
  0.096774  0.000000  0.096774    0.00000000  23 t-inv F
  0.112903  0.000000  0.112903    0.00000000  24 t-inv F
  0.129032  0.000000  0.129032    0.00000000  25 t-inv F
  0.145161  0.000000  0.145161    0.00000000  26 t-inv F
  0.161290  0.000000  0.161290    0.00000000  27 t-inv F
  0.177419  0.000000  0.177419    0.00000000  28 t-inv F
  0.193548  0.000000  0.193548    0.00000000  29 t-inv F
  0.209677  0.000000  0.209677    0.00000000  30 t-inv F
  0.225806  0.000000  0.225806    0.00000000  31 t-inv F
  0.241935  0.000000  0.241935    0.00000000  32 t-inv F
  0.258065  0.000000  0.258065    0.00000000  33 t-inv F
  0.274194  0.000000  0.274194    0.00000000  34 t-inv F
  0.290323  0.000000  0.290323    0.00000000  35 t-inv F
  0.306452  0.000000  0.306452    0.00000000  36 t-inv F
  0.322581  0.000000  0.322581    0.00000000  37 t-inv F
  0.338710  0.000000  0.338710    0.00000000  38 t-inv F
  0.354839  0.000000  0.354839    0.00000000  39 t-inv F
  0.370968  0.000000  0.370968    0.00000000  40 t-inv F
  0.387097  0.000000  0.387097    0.00000000  41 t-inv F
  0.403226  0.000000  0.403226    0.00000000  42 t-inv F
  0.419355  0.000000  0.419355    0.00000000  43 t-inv F
  0.435484  0.000000  0.435484    0.00000000  44 t-inv F
  0.451613  0.000000  0.451613    0.00000000  45 t-inv F
  0.467742  0.000000  0.467742    0.00000000  46 t-inv F
  0.483871  0.000000  0.483871    0.00000000  47 t-inv F
  0.500000  0.000000  0.500000    0.00000000  48 t-inv F
  0.493750  0.018750  0.512500    0.00000000  49 t-inv F
  0.487500  0.037500  0.525000    0.00000000  50 t-inv F
  0.481250  0.056250  0.537500    0.00000000  51 t-inv F
  0.475000  0.075000  0.550000    0.00000000  52 t-inv F
  0.468750  0.093750  0.562500    0.00000000  53 t-inv F
  0.462500  0.112500  0.575000    0.00000000  54 t-inv F
  0.456250  0.131250  0.587500    0.00000000  55 t-inv F
  0.450000  0.150000  0.600000    0.00000000  56 t-inv F
  0.443750  0.168750  0.612500    0.00000000  57 t-inv F
  0.437500  0.187500  0.625000    0.00000000  58 t-inv F
  0.431250  0.206250  0.637500    0.00000000  59 t-inv F
  0.425000  0.225000  0.650000    0.00000000  60 t-inv F
[...]
  0.166667  0.500000  0.166667    0.00462963   8 t-inv T
 -0.500000 -0.333333 -0.333333    0.00462963   8 t-inv T
  0.333333  0.000000 -0.166667    0.00462963   8 t-inv T
 -0.500000 -0.333333  0.000000    0.00462963  11 t-inv T
  0.000000 -0.500000 -0.333333    0.00462963  11 t-inv T
 -0.333333  0.000000 -0.500000    0.00462963  11 t-inv T
  0.333333  0.333333 -0.166667    0.00462963  11 t-inv T
  0.500000  0.166667  0.500000    0.00462963  11 t-inv T
 -0.333333 -0.500000  0.000000    0.00462963  11 t-inv T
 -0.166667  0.333333  0.333333    0.00462963  11 t-inv T
  0.500000  0.500000  0.166667    0.00462963  11 t-inv T
  0.000000 -0.333333 -0.500000    0.00462963  11 t-inv T
  0.333333 -0.166667  0.333333    0.00462963  11 t-inv T
  0.166667  0.500000  0.500000    0.00462963  11 t-inv T
 -0.500000  0.000000 -0.333333    0.00462963  11 t-inv T

 I would recommend the setting:
   dimension x,y,z NGX =    33 NGY =   33 NGZ =   33
 SYSTEM =  Name
 POSCAR =  CdTe (ICSD, 295K, Rabadanov 2001)

 Startparameter for this run:
   NWRITE =      2    write-flag & timer
   PREC   = accura    normal or accurate (medium, high low for compatibility)
   ISTART =      0    job   : 0-new  1-cont  2-samecut
   ICHARG =      2    charge: 1-file 2-atom 10-const
   ISPIN  =      1    spin polarized calculation?
   LNONCOLLINEAR =      F non collinear calculations
   LSORBIT =      F    spin-orbit coupling
   INIWAV =      1    electr: 0-lowe 1-rand  2-diag
   LASPH  =      F    aspherical Exc in radial PAW
   METAGGA=      F    non-selfconsistent MetaGGA calc.

 Electronic Relaxation 1
   ENCUT  =  500.0 eV  36.75 Ry    6.06 a.u.   8.36  8.36  8.36*2*pi/ulx,y,z
   ENINI  =  500.0     initial cutoff
   ENAUG  =  456.1 eV  augmentation charge cutoff
   NELM   =     60;   NELMIN=  5; NELMDL=  0     # of ELM steps
   EDIFF  = 0.1E-05   stopping-criterion for ELM
   LREAL  =      F    real-space projection
   NLSPLINE    = F    spline interpolate recip. space projectors
   LCOMPAT=      F    compatible to vasp.4.4
   GGA_COMPAT  = T    GGA compatible to vasp.4.4-vasp.4.6
   LMAXPAW     = -100 max onsite density
   LMAXMIX     =    2 max onsite mixed and CHGCAR
   VOSKOWN=      0    Vosko Wilk Nusair interpolation
   ROPT   =    0.00000   0.00000
 Ionic relaxation
[...]
   0.33783787  0.33783787  0.33783787       0.000
   0.35135138  0.35135138  0.35135138       0.000
   0.36486489  0.36486489  0.36486489       0.000
   0.37837839  0.37837839  0.37837839       0.000
   0.39189190  0.39189190  0.39189190       0.000
   0.40540543  0.40540543  0.40540543       0.000
   0.41891894  0.41891894  0.41891894       0.000
   0.43243244  0.43243244  0.43243244       0.000
   0.44594595  0.44594595  0.44594595       0.000
   0.45945945  0.45945945  0.45945945       0.000
   0.47297299  0.47297299  0.47297299       0.000
   0.48648649  0.48648649  0.48648649       0.000
   0.50000000  0.50000000  0.50000000       0.000

 position of ions in fractional coordinates (direct lattice)
   0.00000000  0.00000000  0.00000000
   0.25000000  0.25000000  0.25000000

 position of ions in cartesian coordinates  (Angst):
   0.00000000  0.00000000  0.00000000
   1.62067500  1.62067500 -1.62067500

 k-point  1 :   0.0000 0.0000 0.0000  plane waves:    1759
 k-point  2 :   0.1667 0.0000 0.0000  plane waves:    1747
 k-point  3 :   0.3333 0.0000 0.0000  plane waves:    1730
 k-point  4 :   0.5000 0.0000 0.0000  plane waves:    1718
 k-point  5 :   0.1667 0.1667 0.0000  plane waves:    1736
 k-point  6 :   0.3333 0.1667 0.0000  plane waves:    1729
 k-point  7 :   0.5000 0.1667 0.0000  plane waves:    1739
 k-point  8 :  -0.3333 0.1667 0.0000  plane waves:    1732
 k-point  9 :  -0.1667 0.1667 0.0000  plane waves:    1735
 k-point 10 :   0.3333 0.3333 0.0000  plane waves:    1728
 k-point 11 :   0.5000 0.3333 0.0000  plane waves:    1723
 k-point 12 :  -0.3333 0.3333 0.0000  plane waves:    1726
 k-point 13 :   0.5000 0.5000 0.0000  plane waves:    1724
 k-point 14 :   0.5000 0.3333 0.1667  plane waves:    1724
 k-point 15 :  -0.3333 0.3333 0.1667  plane waves:    1726
 k-point 16 :  -0.3333 0.5000 0.1667  plane waves:    1722
 k-point 17 :   0.0000 0.0000 0.0000  plane waves:    1759
 k-point 18 :   0.0161 0.0000 0.0161  plane waves:    1771
 k-point 19 :   0.0323 0.0000 0.0323  plane waves:    1755
 k-point 20 :   0.0484 0.0000 0.0484  plane waves:    1763
 k-point 21 :   0.0645 0.0000 0.0645  plane waves:    1747
 k-point 22 :   0.0806 0.0000 0.0806  plane waves:    1747
 k-point 23 :   0.0968 0.0000 0.0968  plane waves:    1744
 k-point 24 :   0.1129 0.0000 0.1129  plane waves:    1744
 k-point 25 :   0.1290 0.0000 0.1290  plane waves:    1740
 k-point 26 :   0.1452 0.0000 0.1452  plane waves:    1748
 k-point 27 :   0.1613 0.0000 0.1613  plane waves:    1736
 k-point 28 :   0.1774 0.0000 0.1774  plane waves:    1748
 k-point 29 :   0.1935 0.0000 0.1935  plane waves:    1744
 k-point 30 :   0.2097 0.0000 0.2097  plane waves:    1736
 k-point 31 :   0.2258 0.0000 0.2258  plane waves:    1736
 k-point 32 :   0.2419 0.0000 0.2419  plane waves:    1716
 k-point 33 :   0.2581 0.0000 0.2581  plane waves:    1716
 k-point 34 :   0.2742 0.0000 0.2742  plane waves:    1724
 k-point 35 :   0.2903 0.0000 0.2903  plane waves:    1728
 k-point 36 :   0.3065 0.0000 0.3065  plane waves:    1720
 k-point 37 :   0.3226 0.0000 0.3226  plane waves:    1728
 k-point 38 :   0.3387 0.0000 0.3387  plane waves:    1728
 k-point 39 :   0.3548 0.0000 0.3548  plane waves:    1724
 k-point 40 :   0.3710 0.0000 0.3710  plane waves:    1728
 k-point 41 :   0.3871 0.0000 0.3871  plane waves:    1728
 k-point 42 :   0.4032 0.0000 0.4032  plane waves:    1728
 k-point 43 :   0.4194 0.0000 0.4194  plane waves:    1728
 k-point 44 :   0.4355 0.0000 0.4355  plane waves:    1720
 k-point 45 :   0.4516 0.0000 0.4516  plane waves:    1732
 k-point 46 :   0.4677 0.0000 0.4677  plane waves:    1732
 k-point 47 :   0.4839 0.0000 0.4839  plane waves:    1724
 k-point 48 :   0.5000 0.0000 0.5000  plane waves:    1724
 k-point 49 :   0.4938 0.0187 0.5125  plane waves:    1724
 k-point 50 :   0.4875 0.0375 0.5250  plane waves:    1724
 k-point 51 :   0.4812 0.0563 0.5375  plane waves:    1724
 k-point 52 :   0.4750 0.0750 0.5500  plane waves:    1722
 k-point 53 :   0.4688 0.0937 0.5625  plane waves:    1725
 k-point 54 :   0.4625 0.1125 0.5750  plane waves:    1720
 k-point 55 :   0.4563 0.1312 0.5875  plane waves:    1722
 k-point 56 :   0.4500 0.1500 0.6000  plane waves:    1722
 k-point 57 :   0.4437 0.1688 0.6125  plane waves:    1720
 k-point 58 :   0.4375 0.1875 0.6250  plane waves:    1714
 k-point 59 :   0.4313 0.2062 0.6375  plane waves:    1723
 k-point 60 :   0.4250 0.2250 0.6500  plane waves:    1721
[...]
 k-point 85 :   0.2156 0.2156 0.4313  plane waves:    1726
 k-point 86 :   0.2063 0.2063 0.4125  plane waves:    1738
 k-point 87 :   0.1969 0.1969 0.3938  plane waves:    1734
 k-point 88 :   0.1875 0.1875 0.3750  plane waves:    1730
 k-point 89 :   0.1781 0.1781 0.3562  plane waves:    1731
 k-point 90 :   0.1688 0.1688 0.3375  plane waves:    1735
 k-point 91 :   0.1594 0.1594 0.3187  plane waves:    1735
 k-point 92 :   0.1500 0.1500 0.3000  plane waves:    1737
 k-point 93 :   0.1406 0.1406 0.2812  plane waves:    1741
 k-point 94 :   0.1313 0.1313 0.2625  plane waves:    1747
 k-point 95 :   0.1219 0.1219 0.2438  plane waves:    1747
 k-point 96 :   0.1125 0.1125 0.2250  plane waves:    1745
 k-point 97 :   0.1031 0.1031 0.2063  plane waves:    1745
 k-point 98 :   0.0938 0.0938 0.1875  plane waves:    1745
 k-point 99 :   0.0844 0.0844 0.1688  plane waves:    1743
 k-point ** :   0.0750 0.0750 0.1500  plane waves:    1749
 k-point ** :   0.0656 0.0656 0.1312  plane waves:    1747
 k-point ** :   0.0563 0.0563 0.1125  plane waves:    1753
 k-point ** :   0.0469 0.0469 0.0938  plane waves:    1753
 k-point ** :   0.0375 0.0375 0.0750  plane waves:    1757
 k-point ** :   0.0281 0.0281 0.0562  plane waves:    1763
 k-point ** :   0.0188 0.0188 0.0375  plane waves:    1759
 k-point ** :   0.0094 0.0094 0.0188  plane waves:    1767
 k-point ** :   0.0000 0.0000 0.0000  plane waves:    1759
 k-point ** :   0.0135 0.0135 0.0135  plane waves:    1771
 k-point ** :   0.0270 0.0270 0.0270  plane waves:    1762
 k-point ** :   0.0405 0.0405 0.0405  plane waves:    1756
 k-point ** :   0.0541 0.0541 0.0541  plane waves:    1756
 k-point ** :   0.0676 0.0676 0.0676  plane waves:    1756
 k-point ** :   0.0811 0.0811 0.0811  plane waves:    1753
 k-point ** :   0.0946 0.0946 0.0946  plane waves:    1750
 k-point ** :   0.1081 0.1081 0.1081  plane waves:    1750
 k-point ** :   0.1216 0.1216 0.1216  plane waves:    1747
 k-point ** :   0.1351 0.1351 0.1351  plane waves:    1747
 k-point ** :   0.1486 0.1486 0.1486  plane waves:    1747
 k-point ** :   0.1622 0.1622 0.1622  plane waves:    1747
 k-point ** :   0.1757 0.1757 0.1757  plane waves:    1747
 k-point ** :   0.1892 0.1892 0.1892  plane waves:    1754
 k-point ** :   0.2027 0.2027 0.2027  plane waves:    1754
 k-point ** :   0.2162 0.2162 0.2162  plane waves:    1748
 k-point ** :   0.2297 0.2297 0.2297  plane waves:    1745
 k-point ** :   0.2432 0.2432 0.2432  plane waves:    1745
 k-point ** :   0.2568 0.2568 0.2568  plane waves:    1739
 k-point ** :   0.2703 0.2703 0.2703  plane waves:    1736
 k-point ** :   0.2838 0.2838 0.2838  plane waves:    1724
 k-point ** :   0.2973 0.2973 0.2973  plane waves:    1724
 k-point ** :   0.3108 0.3108 0.3108  plane waves:    1730
 k-point ** :   0.3243 0.3243 0.3243  plane waves:    1730
 k-point ** :   0.3378 0.3378 0.3378  plane waves:    1730
 k-point ** :   0.3514 0.3514 0.3514  plane waves:    1730
 k-point ** :   0.3649 0.3649 0.3649  plane waves:    1727
 k-point ** :   0.3784 0.3784 0.3784  plane waves:    1727
 k-point ** :   0.3919 0.3919 0.3919  plane waves:    1727
 k-point ** :   0.4054 0.4054 0.4054  plane waves:    1721
 k-point ** :   0.4189 0.4189 0.4189  plane waves:    1727
 k-point ** :   0.4324 0.4324 0.4324  plane waves:    1724
 k-point ** :   0.4459 0.4459 0.4459  plane waves:    1730
 k-point ** :   0.4595 0.4595 0.4595  plane waves:    1718
 k-point ** :   0.4730 0.4730 0.4730  plane waves:    1718
 k-point ** :   0.4865 0.4865 0.4865  plane waves:    1718
 k-point ** :   0.5000 0.5000 0.5000  plane waves:    1718

 maximum and minimum number of plane-waves per node :       302      278

 maximum number of plane-waves:      1771
 maximum index in each direction:
   IXMAX=    8   IYMAX=    8   IZMAX=    8
   IXMIN=   -8   IYMIN=   -8   IZMIN=   -9

 NGX is ok and might be reduce to  34
 NGY is ok and might be reduce to  34
 NGZ is ok and might be reduce to  36

 parallel 3D FFT for wavefunctions:
    minimum data exchange during FFTs selected (reduces bandwidth)
 parallel 3D FFT for charge:
    minimum data exchange during FFTs selected (reduces bandwidth)

 FFT grid for exact exchange (Hartree Fock)
  NGX = 20; NGY = 20; NGZ = 20

 Radii for the augmentation spheres in the non-local exchange
 for species   1 augmentation radius   1.444 (default was   1.070)
       energy cutoff for augmentation   2000.0
 for species   2 augmentation radius   1.606 (default was   1.190)
       energy cutoff for augmentation   2000.0

 real space projection operators:
  max/ min on nodes  :        150.20         97.27

 Maximum index for augmentation-charges in exchange          420
  SETUP_FOCK is finished

 Broyden mixing: mesh for mixing (old mesh)
   NGX = 17   NGY = 17   NGZ = 17
  (NGX  = 72   NGY  = 72   NGZ  = 72)
  gives a total of   4913 points

 initial charge density was supplied:
 charge density of overlapping atoms calculated
 number of electron      18.0000000 magnetization
 charge density for first step will be calculated from the start-wavefunctions

 Maximum index for augmentation-charges         1676 (set IRDMAX)

 First call to EWALD:  gamma=   0.434
 Maximum number of real-space cells 3x 3x 3
 Maximum number of reciprocal cells 3x 3x 3

 FEWALD executed in parallel

----------------------------------------- Iteration    1(   1)  ---------------------------------------

 eigenvalue-minimisations  :  5920
 total energy-change (2. order) : 0.6385061E+03  (-0.4341250E+04)
 number of electron      18.0000000 magnetization
 augmentation part       18.0000000 magnetization

 Free energy of the ion-electron system (eV)
  alpha Z        PSCENC =        50.17222034
  Ewald energy   TEWEN  =     -1044.83138452
  -Hartree energ DENC   =      -510.12304479
  -exchange      EXHF   =         0.00000000
  -V(xc)+E(xc)   XCENC  =       -19.76180362
  PAW double counting   =      1401.07110985    -1338.68056378
  entropy T*S    EENTRO =        -0.00009815
  eigenvalues    EBANDS =       586.36160699
  atomic energy  EATOM  =      1514.29801353
  free energy    TOTEN  =       638.50605584 eV

  energy without entropy =      638.50615399  energy(sigma->0) =      638.50610491
  exchange ACFDT corr.  =         0.00000000  see jH, gK, PRB 81, 115126

[...]

 eigenvalue-minimisations  :  6008
 total energy-change (2. order) :-0.5440286E+03  (-0.5042271E+03)
 number of electron      18.0000000 magnetization
 augmentation part       18.0000000 magnetization

[...]

----------------------------------------- Iteration    1(  17)  ---------------------------------------

 eigenvalue-minimisations  :     0
 total energy-change (2. order) :-0.3699959E-06  (-0.8829925E-07)
 number of electron      17.9999996 magnetization
 augmentation part        4.6473217 magnetization

 Free energy of the ion-electron system (eV)
  alpha Z        PSCENC =        50.17222034
  Ewald energy   TEWEN  =     -1044.83138452
  -Hartree energ DENC   =      -506.36796386
  -exchange      EXHF   =        34.61270038
  -V(xc)+E(xc)   XCENC  =       -19.62818172
  PAW double counting   =      3343.48165619    -3280.07308072
  entropy T*S    EENTRO =        -0.00000000
  eigenvalues    EBANDS =       -97.69023891
  atomic energy  EATOM  =      1514.29801353
  free energy    TOTEN  =        -6.02625929 eV

  energy without entropy =       -6.02625929  energy(sigma->0) =       -6.02625929
  exchange ACFDT corr.  =         0.00000000  see jH, gK, PRB 81, 115126

  average scaling for gradient   0.9019

 the core state eigenenergies are
   1-  1s    -32.6551  2s    -32.5024  2p    -32.5024  3s    -32.5024  3p    -32.5024
       3d    -32.5024  4s    -32.5024  4p    -32.5024
   2-  1s    -87.5181  2s    -87.7001  2p    -87.7001  3s    -87.7001  3p    -87.7001
       3d    -87.7001  4s    -87.7001  4p    -87.7001  4d    -87.7001

 E-fermi :   1.9348     XC(G=0):  -7.1635     alpha+bet : -7.4227

 k-point     1 :       0.0000    0.0000    0.0000
  band No.  band energies     occupation
      1     -10.3103      2.00000
      2      -7.7527      2.00000
      3      -7.7527      2.00000
      4      -7.7527      2.00000
      5      -7.4891      2.00000
      6      -7.4891      2.00000
      7       1.8315      2.00000
      8       1.8315      2.00000
      9       1.8315      2.00000
     10       3.3757      0.00000
     11       7.3029      0.00000
     12       7.3029      0.00000
     13       7.3029      0.00000
     14      10.3353      0.00000
     15      12.1719      0.00000
     16      12.1720      0.00000

[...]

 k-point   145 :       0.5000    0.5000    0.5000
  band No.  band energies     occupation
      1      -9.9210      2.00000
      2      -7.6896      2.00000
      3      -7.6896      2.00000
      4      -7.4817      2.00000
      5      -7.4817      2.00000
      6      -7.0440      2.00000
      7      -2.9069      2.00000
      8       1.0027      2.00000
      9       1.0027      2.00000
     10       4.4429      0.00000
     11       7.8847      0.00000
     12       7.8847      0.00000
     13       9.8097      0.00000
     14      11.5794      0.00000
     15      13.2481      0.00000
     16      13.2481      0.00000

 soft charge-density along one line, spin component           1
         0         1         2         3         4         5         6         7         8         9
 total charge-density along one line

------------------------ aborting loop because EDIFF is reached ----------------------------------------

 total charge

# of ion     s       p       d       tot
  1        0.442   0.313   9.574  10.329
  2        1.309   2.230   0.020   3.558
tot        1.751   2.542   9.594  13.887

  FORCE on cell =-STRESS in cart. coord.  units (eV):
  Direction    XX          YY          ZZ          XY          YZ          ZX
  Alpha Z    50.17222    50.17222    50.17222
  Ewald    -348.27726  -348.27726  -348.27726     0.00000     0.00000     0.00000
  Hartree   168.78851   168.78851   168.78851     0.00000    -0.00000    -0.00000
  E(xc)     -66.47792   -66.47792   -66.47792    -0.00000     0.00000     0.00000
  Local     -16.90486   -16.90486   -16.90486     0.00001    -0.00001    -0.00001
  n-local    62.85800    67.65801    66.83412    -1.73756    -2.78580    -1.16058
  augment    -0.14313    -0.14313    -0.14313    -0.00001     0.00001     0.00001
  Kinetic   200.92925   204.03271   204.22510    -1.61379    -2.87089    -1.21955
  Fock            NaN         NaN         NaN         NaN         NaN         NaN
  Total           NaN         NaN         NaN         NaN         NaN         NaN
  in kB           NaN         NaN         NaN         NaN         NaN         NaN

 VOLUME and BASIS-vectors are now :
  energy-cutoff  :      500.00
  volume of cell :       68.11
      direct lattice vectors                 reciprocal lattice vectors
     3.241350000  3.241350000  0.000000000     0.154256714  0.154256714  0.154256714
     3.241350000  0.000000000 -3.241350000     0.154256714 -0.154256714 -0.154256714
     0.000000000  3.241350000 -3.241350000    -0.154256714  0.154256714 -0.154256714

  length of vectors
     4.583961130  4.583961130  4.583961130     0.267180466  0.267180466  0.267180466

 FORCES acting on ions:
    Electron-Ion                     Ewald-Force                    Non-Local-Force
   -.125E-07 -.118E-07 0.118E-07   -.744E-14 -.454E-14 0.998E-14   -.694E-17 0.694E-17 -.208E-16
   0.182E-06 0.188E-06 -.188E-06   0.759E-14 0.606E-14 -.102E-13   -.690E-16 -.694E-16 0.111E-15
   0.237E-06 0.243E-06 -.243E-06   0.152E-15 0.152E-14 -.238E-15   -.759E-16 -.625E-16 0.902E-16

 POSITION                                       TOTAL-FORCE (eV/Angst)
      0.00000      0.00000      0.00000              NaN           NaN           NaN
      1.62068      1.62068     -1.62068              NaN           NaN           NaN
    total drift:                                     NaN           NaN           NaN

  FREE ENERGIE OF THE ION-ELECTRON SYSTEM (eV)
  free  energy   TOTEN  =        -6.02625929 eV

  energy  without entropy=       -6.02625929  energy(sigma->0) =       -6.02625929

 writing wavefunctions

 total charge

# of ion     s       p       d       tot
  1        0.442   0.313   9.574  10.329
  2        1.309   2.230   0.020   3.558
tot        1.751   2.542   9.594  13.887