 vasp.5.3.5 31Mar14 (build Mar 26 2015 15:03:36) complex

 executed on             LinuxIFC date 2015.10.28  14:45:10

 INCAR:
 POTCAR:    PAW_PBE Cd 06Sep2000
 POTCAR:    PAW_PBE Te 08Apr2002

 POTCAR:    PAW_PBE Cd 06Sep2000
   VRHFIN =Cd : s2 d10

   TITEL  = PAW_PBE Cd 06Sep2000
   POMASS =  112.411; ZVAL   =   12.000    mass and valenz
   ENMAX  =  274.336; ENMIN  =  205.752 eV

 POTCAR:    PAW_PBE Te 08Apr2002
   VRHFIN =Te: s2p4

   TITEL  = PAW_PBE Te 08Apr2002
   POMASS =  127.600; ZVAL   =    6.000    mass and valenz
   ENMAX  =  174.982; ENMIN  =  131.236 eV

  PAW_PBE Cd 06Sep2000                  :
  PAW_PBE Te 08Apr2002                  :

 POSCAR: Cd1 Te1
  positions in direct lattice
  velocities in cartesian coordinates
 exchange correlation table for  LEXCH =        8
   RHO(1)=    0.500       N(1)  =     2000
   RHO(2)=  100.500       N(2)  =     4000

 ion  position               nearest neighbor table
   1  0.000  0.000  0.000-   5 2.87   6 2.87   7 2.87   8 2.87
   2  0.000  0.500  0.500-   5 2.87   6 2.87   7 2.87   8 2.87
   3  0.500  0.000  0.500-   5 2.87   6 2.87   7 2.87   8 2.87
   4  0.500  0.500  0.000-   5 2.87   6 2.87   7 2.87   8 2.87
   5  0.250  0.250  0.250-   1 2.87   2 2.87   3 2.87   4 2.87
   6  0.750  0.750  0.250-   1 2.87   2 2.87   3 2.87   4 2.87
   7  0.750  0.250  0.750-   1 2.87   2 2.87   3 2.87   4 2.87
   8  0.250  0.750  0.750-   1 2.87   2 2.87   3 2.87   4 2.87

  LATTYP: Found a simple cubic cell.
 ALAT       =     6.6231105740

  Lattice vectors:

 A1 = (   6.6231105740,   0.0000000000,   0.0000000000)
 A2 = (   0.0000000000,   6.6231105740,   0.0000000000)
 A3 = (   0.0000000000,   0.0000000000,   6.6231105740)

Analysis of symmetry for initial positions (statically):
 Subroutine PRICEL returns following result:

  LATTYP: Found a face centered cubic cell.
 ALAT       =     6.6231105740

[...]

   4 primitive cells build up your supercell.

 Routine SETGRP: Setting up the symmetry group for a
 simple cubic supercell.

 Subroutine GETGRP returns: Found 24 space group operations
 (whereof 24 operations were pure point group operations)
 out of a pool of 48 trial point group operations.

The static configuration has the point symmetry T_d .

Analysis of symmetry for dynamics (positions and initial velocities):
 Subroutine PRICEL returns following result:

  LATTYP: Found a face centered cubic cell.
 ALAT       =     6.6231105740

  Lattice vectors:

 A1 = (   3.3115552870,   3.3115552870,   0.0000000000)
 A2 = (   3.3115552870,   0.0000000000,  -3.3115552870)
 A3 = (   0.0000000000,   3.3115552870,  -3.3115552870)

   4 primitive cells build up your supercell.

 Routine SETGRP: Setting up the symmetry group for a
 simple cubic supercell.

 Subroutine GETGRP returns: Found 24 space group operations
 (whereof 24 operations were pure point group operations)
 out of a pool of 48 trial point group operations.

The dynamic configuration has the point symmetry T_d .

 KPOINTS: Automatically generated mesh
  k-points in reciprocal lattice
Space group operators:
 irot       det(A)        alpha          n_x          n_y          n_z        tau_x        tau_y        tau_z
    1     1.000000     0.000000     1.000000     0.000000     0.000000     0.000000     0.000000     0.000000
    2     1.000000   120.000000    -0.577350    -0.577350    -0.577350     0.000000     0.000000     0.000000
    3     1.000000   120.000000     0.577350     0.577350     0.577350     0.000000     0.000000     0.000000
    4    -1.000000    90.000000     0.000000     0.000000    -1.000000     0.000000     0.000000     0.000000
    5    -1.000000   180.000000     0.000000     0.707107     0.707107     0.000000     0.000000     0.000000
    6    -1.000000    90.000000     0.000000     1.000000     0.000000     0.000000     0.000000     0.000000
    7     1.000000   180.000000     0.000000     0.000000     1.000000     0.000000     0.000000     0.000000
    8     1.000000   120.000000    -0.577350     0.577350     0.577350     0.000000     0.000000     0.000000
    9     1.000000   120.000000    -0.577350     0.577350    -0.577350     0.000000     0.000000     0.000000
   10    -1.000000    90.000000     0.000000     0.000000     1.000000     0.000000     0.000000     0.000000
   11    -1.000000    90.000000    -1.000000     0.000000     0.000000     0.000000     0.000000     0.000000
   12    -1.000000   180.000000     0.707107     0.000000     0.707107     0.000000     0.000000     0.000000
   13     1.000000   120.000000     0.577350    -0.577350     0.577350     0.000000     0.000000     0.000000
   14     1.000000   120.000000    -0.577350    -0.577350     0.577350     0.000000     0.000000     0.000000
   15     1.000000   180.000000     1.000000     0.000000     0.000000     0.000000     0.000000     0.000000
   16    -1.000000    90.000000     0.000000    -1.000000     0.000000     0.000000     0.000000     0.000000
   17    -1.000000   180.000000     0.707107     0.707107     0.000000     0.000000     0.000000     0.000000
   18    -1.000000    90.000000     1.000000     0.000000     0.000000     0.000000     0.000000     0.000000
   19     1.000000   120.000000     0.577350    -0.577350    -0.577350     0.000000     0.000000     0.000000
   20     1.000000   180.000000     0.000000     1.000000     0.000000     0.000000     0.000000     0.000000
   21     1.000000   120.000000     0.577350     0.577350    -0.577350     0.000000     0.000000     0.000000
   22    -1.000000   180.000000     0.000000    -0.707107     0.707107     0.000000     0.000000     0.000000
   23    -1.000000   180.000000     0.707107    -0.707107     0.000000     0.000000     0.000000     0.000000
   24    -1.000000   180.000000     0.707107     0.000000    -0.707107     0.000000     0.000000     0.000000

 I would recommend the setting:
   dimension x,y,z NGX =    36 NGY =   36 NGZ =   36
 SYSTEM =  Name
 POSCAR =  Cd1 Te1

 Startparameter for this run:
   NWRITE =      2    write-flag & timer
   PREC   = normal    normal or accurate (medium, high low for compatibility)
   ISTART =      0    job   : 0-new  1-cont  2-samecut
   ICHARG =      2    charge: 1-file 2-atom 10-const
   ISPIN  =      1    spin polarized calculation?
   LNONCOLLINEAR =      F non collinear calculations
   LSORBIT =      F    spin-orbit coupling
   INIWAV =      1    electr: 0-lowe 1-rand  2-diag
   LASPH  =      F    aspherical Exc in radial PAW
   METAGGA=      F    non-selfconsistent MetaGGA calc.

 Electronic Relaxation 1
   ENCUT  =  500.0 eV  36.75 Ry    6.06 a.u.  12.08 12.08 12.08*2*pi/ulx,y,z
   ENINI  =  500.0     initial cutoff
   ENAUG  =  456.1 eV  augmentation charge cutoff
   NELM   =     60;   NELMIN=  2; NELMDL=  0     # of ELM steps
   EDIFF  = 0.1E-05   stopping-criterion for ELM
   LREAL  =      F    real-space projection
   NLSPLINE    = F    spline interpolate recip. space projectors
   LCOMPAT=      F    compatible to vasp.4.4
   GGA_COMPAT  = T    GGA compatible to vasp.4.4-vasp.4.6
   LMAXPAW     = -100 max onsite density
   LMAXMIX     =    2 max onsite mixed and CHGCAR
   VOSKOWN=      0    Vosko Wilk Nusair interpolation
   ROPT   =    0.00000   0.00000
 Ionic relaxation
   EDIFFG = -.5E-02   stopping-criterion for IOM
   NSW    =      1    number of steps for IOM
   NBLOCK =      1;   KBLOCK =      1    inner block; outer block
   IBRION =      2    ionic relax: 0-MD 1-quasi-New 2-CG
   NFREE  =      1    steps in history (QN), initial steepest desc. (CG)
   ISIF   =      3    stress and relaxation
   IWAVPR =     11    prediction:  0-non 1-charg 2-wave 3-comb
   ISYM   =      2    0-nonsym 1-usesym 2-fastsym
   LCORR  =      T    Harris-Foulkes like correction to forces

   POTIM  = 0.5000    time-step for ionic-motion
   TEIN   =    0.0    initial temperature
   TEBEG  =    0.0;   TEEND  =   0.0 temperature during run
   SMASS  =  -3.00    Nose mass-parameter (am)
   estimated Nose-frequenzy (Omega)   =  0.10E-29 period in steps =****** mass=  -0.100E-26a.u.
   SCALEE = 1.0000    scale energy and forces
   NPACO  =    256;   APACO  = 16.0  distance and # of slots for P.C.
   PSTRESS=    0.0 pullay stress

  Mass of Ions in am
   POMASS = 112.41127.60
  Ionic Valenz
   ZVAL   =  12.00  6.00
  Atomic Wigner-Seitz radii
  virtual crystal weights
   VCA    =   1.00  1.00
   NELECT =      72.0000    total number of electrons
   NUPDOWN=      -1.0000    fix difference up-down

 DOS related values:
   EMIN   =  10.00;   EMAX   =-10.00  energy-range for DOS
   EFERMI =   0.00
   ISMEAR =     0;   SIGMA  =   0.10  broadening in eV -4-tet -1-fermi 0-gaus

 Electronic relaxation 2 (details)
   IALGO  =     38    algorithm
   LDIAG  =      T    sub-space diagonalisation (order eigenvalues)
   LSUBROT=      F    optimize rotation matrix (better conditioning)
   TURBO    =      0    0=normal 1=particle mesh
   IRESTART =      0    0=no restart 2=restart with 2 vectors
   NREBOOT  =      0    no. of reboots
   NMIN     =      0    reboot dimension
   EREF     =   0.00    reference energy to select bands
   IMIX   =      4    mixing-type and parameters
     AMIX     =   0.40;   BMIX     =  1.00
     AMIX_MAG =   1.60;   BMIX_MAG =  1.00
     AMIN     =   0.01
     WC   =   100.;   INIMIX=   1;  MIXPRE=   1;  MAXMIX= -45

 Intra band minimization:
   WEIMIN = 0.0010     energy-eigenvalue tresh-hold
   EBREAK =  0.52E-08  absolut break condition
   DEPER  =   0.30     relativ break condition

   TIME   =   0.40     timestep for ELM

  volume/ion in A,a.u.               =      36.32       245.07
  Fermi-wavevector in a.u.,A,eV,Ry     =   1.028309  1.943222 14.387066  1.057419
  Thomas-Fermi vector in A             =   2.162299

 Write flags
   LWAVE  =      T    write WAVECAR
   LCHARG =      T    write CHGCAR
   LVTOT  =      F    write LOCPOT, total local potential
   LVHAR  =      F    write LOCPOT, Hartree potential only
   LELF   =      F    write electronic localiz. function (ELF)
   LORBIT =     10    0 simple, 1 ext, 2 COOP (PROOUT)

 Dipole corrections
   LMONO  =      F    monopole corrections only (constant potential shift)
   LDIPOL =      F    correct potential (dipole corrections)
   IDIPOL =      0    1-x, 2-y, 3-z, 4-all directions
   EPSILON=  1.0000000 bulk dielectric constant

 Core level calculations are selected ICORELEVEL =  1
 Exchange correlation treatment:
   GGA     =    PE    GGA type
   VOSKOWN=      0    Vosko Wilk Nusair interpolation
   LHFCALC =     F    Hartree Fock is set to
   LHFONE  =     F    Hartree Fock one center treatment
   AEXX    =    0.0000 exact exchange contribution

 Linear response parameters
   LEPSILON=     F    determine dielectric tensor
   LRPA    =     F    only Hartree local field effects (RPA)
   LNABLA  =     F    use nabla operator in PAW spheres
   LVEL    =     F    velocity operator in full k-point grid
   LINTERFAST=   F  fast interpolation
   KINTER  =     0    interpolate to denser k-point grid
   CSHIFT  =0.1000    complex shift for real part using Kramers Kronig
   OMEGAMAX=  -1.0    maximum frequency
   DEG_THRESHOLD= 0.2000000E-02 threshold for treating states as degnerate
   RTIME   =    0.100 relaxation time in fs

[...]
 k-point ** :   0.4821 1.0000 0.0000  plane waves:    7368
 k-point ** :   0.4643 1.0000 0.0000  plane waves:    7380
 k-point ** :   0.4464 1.0000 0.0000  plane waves:    7380
 k-point ** :   0.4286 1.0000 0.0000  plane waves:    7372
 k-point ** :   0.4107 1.0000 0.0000  plane waves:    7364
 k-point ** :   0.3929 1.0000 0.0000  plane waves:    7364
 k-point ** :   0.3750 1.0000 0.0000  plane waves:    7364
 k-point ** :   0.3571 1.0000 0.0000  plane waves:    7372
 k-point ** :   0.3393 1.0000 0.0000  plane waves:    7376
 k-point ** :   0.3214 1.0000 0.0000  plane waves:    7372
 k-point ** :   0.3036 1.0000 0.0000  plane waves:    7368
 k-point ** :   0.2857 1.0000 0.0000  plane waves:    7372
 k-point ** :   0.2679 1.0000 0.0000  plane waves:    7364
 k-point ** :   0.2500 1.0000 0.0000  plane waves:    7360
 k-point ** :   0.2321 1.0000 0.0000  plane waves:    7368
 k-point ** :   0.2143 1.0000 0.0000  plane waves:    7368
 k-point ** :   0.1964 1.0000 0.0000  plane waves:    7348
 k-point ** :   0.1786 1.0000 0.0000  plane waves:    7332
 k-point ** :   0.1607 1.0000 0.0000  plane waves:    7332
 k-point ** :   0.1429 1.0000 0.0000  plane waves:    7328
 k-point ** :   0.1250 1.0000 0.0000  plane waves:    7328
 k-point ** :   0.1071 1.0000 0.0000  plane waves:    7328
 k-point ** :   0.0893 1.0000 0.0000  plane waves:    7308
 k-point ** :   0.0714 1.0000 0.0000  plane waves:    7305
 k-point ** :   0.0536 1.0000 0.0000  plane waves:    7305
 k-point ** :   0.0357 1.0000 0.0000  plane waves:    7321
 k-point ** :   0.0179 1.0000 0.0000  plane waves:    7297
 k-point ** :   0.0000 1.0000 0.0000  plane waves:    7249
 k-point ** :   0.0000 0.9825 0.0000  plane waves:    7297
 k-point ** :   0.0000 0.9649 0.0000  plane waves:    7321
 k-point ** :   0.0000 0.9474 0.0000  plane waves:    7305
 k-point ** :   0.0000 0.9298 0.0000  plane waves:    7305
 k-point ** :   0.0000 0.9123 0.0000  plane waves:    7308
 k-point ** :   0.0000 0.8947 0.0000  plane waves:    7328
[...]
 k-point ** :   0.0000 0.2456 0.0000  plane waves:    7360
 k-point ** :   0.0000 0.2281 0.0000  plane waves:    7356
 k-point ** :   0.0000 0.2105 0.0000  plane waves:    7356
 k-point ** :   0.0000 0.1930 0.0000  plane waves:    7348
 k-point ** :   0.0000 0.1754 0.0000  plane waves:    7332
 k-point ** :   0.0000 0.1579 0.0000  plane waves:    7328
 k-point ** :   0.0000 0.1404 0.0000  plane waves:    7328
 k-point ** :   0.0000 0.1228 0.0000  plane waves:    7328
 k-point ** :   0.0000 0.1053 0.0000  plane waves:    7328
 k-point ** :   0.0000 0.0877 0.0000  plane waves:    7308
 k-point ** :   0.0000 0.0702 0.0000  plane waves:    7305
 k-point ** :   0.0000 0.0526 0.0000  plane waves:    7305
 k-point ** :   0.0000 0.0351 0.0000  plane waves:    7321
 k-point ** :   0.0000 0.0175 0.0000  plane waves:    7297
 k-point ** :   0.0000 0.0000 0.0000  plane waves:    7249

 maximum and minimum number of plane-waves per node :      7415     7249

 maximum number of plane-waves:      7415
 maximum index in each direction:
   IXMAX=   12   IYMAX=   12   IZMAX=   12
   IXMIN=  -12   IYMIN=  -13   IZMIN=  -12

 WARNING: aliasing errors must be expected set NGX to  50 to avoid them
 WARNING: aliasing errors must be expected set NGY to  52 to avoid them
 WARNING: aliasing errors must be expected set NGZ to  50 to avoid them
 aliasing errors are usually negligible using standard VASP settings
 and one can safely disregard these warnings

 serial   3D FFT for wavefunctions
 parallel 3D FFT for charge:
    minimum data exchange during FFTs selected (reduces bandwidth)

 Broyden mixing: mesh for mixing (old mesh)
   NGX = 25   NGY = 25   NGZ = 25
  (NGX  = 72   NGY  = 72   NGZ  = 72)
  gives a total of  15625 points

 initial charge density was supplied:
 charge density of overlapping atoms calculated
 number of electron      72.0000000 magnetization
 keeping initial charge density in first step

 Maximum index for augmentation-charges         1143 (set IRDMAX)

 First call to EWALD:  gamma=   0.268
 Maximum number of real-space cells 3x 3x 3
 Maximum number of reciprocal cells 3x 3x 3

 FEWALD executed in parallel

----------------------------------------- Iteration    1(   1)  ---------------------------------------

 eigenvalue-minimisations  : 20184
 total energy-change (2. order) : 0.4437178E+03  (-0.3101389E+04)
 number of electron      72.0000000 magnetization
 augmentation part       72.0000000 magnetization

 Free energy of the ion-electron system (eV)
  alpha Z        PSCENC =       188.19369429
  Ewald energy   TEWEN  =     -4090.72356811
  -Hartree energ DENC   =     -2089.73724981
  -exchange      EXHF   =         0.00000000
  -V(xc)+E(xc)   XCENC  =       -91.44395040
  PAW double counting   =      5617.72092748    -5328.65891765
  entropy T*S    EENTRO =        -0.02027767
  eigenvalues    EBANDS =       172.60068560
  atomic energy  EATOM  =      6065.78646317
  free energy    TOTEN  =       443.71780689 eV

  energy without entropy =      443.73808457  energy(sigma->0) =      443.72794573

[...]

 eigenvalue-minimisations  : 22560
 total energy-change (2. order) :-0.4386600E+03  (-0.4247666E+03)
 number of electron      72.0000000 magnetization
 augmentation part       72.0000000 magnetization

[...]

 Broyden mixing:
  rms(total) = 0.97831E+00    rms(broyden)= 0.97830E+00
  rms(prec ) = 0.12318E+01
  weight for this iteration     100.00

[...]

 eigenvalues of (default mixing * dielectric matrix)
  average eigenvalue GAMMA=   1.9131
  1.9131

[...]

 eigenvalue-minimisations  : 21200
 total energy-change (2. order) : 0.1083011E-05  (-0.3965491E-06)
 number of electron      71.9999863 magnetization
 augmentation part       18.3459562 magnetization

 Broyden mixing:
  rms(total) = 0.19649E-02    rms(broyden)= 0.19649E-02
  rms(prec ) = 0.20696E-02
  weight for this iteration     100.00

 eigenvalues of (default mixing * dielectric matrix)
  average eigenvalue GAMMA=   1.5632
  2.8006  2.8006  2.3307  2.2536  1.0880  1.0880  0.9190  0.9190  0.7658  0.6669

[...]

----------------------------------------- Iteration    1(  16)  ---------------------------------------

 eigenvalue-minimisations  : 12848
 total energy-change (2. order) :-0.1158560E-06  (-0.1906168E-07)
 number of electron      71.9999863 magnetization
 augmentation part       18.3459562 magnetization

 Free energy of the ion-electron system (eV)
  alpha Z        PSCENC =       188.19369429
  Ewald energy   TEWEN  =     -4090.72356811
  -Hartree energ DENC   =     -2064.10054663
  -exchange      EXHF   =         0.00000000
  -V(xc)+E(xc)   XCENC  =       -91.16345623
  PAW double counting   =      6759.90516918    -6468.26163628
  entropy T*S    EENTRO =        -0.00000078
  eigenvalues    EBANDS =      -318.87994486
  atomic energy  EATOM  =      6065.78646317
  free energy    TOTEN  =       -19.24382625 eV

  energy without entropy =      -19.24382547  energy(sigma->0) =      -19.24382586

 the core state eigenenergies are
   1-  1s -26514.0253  2s  -3931.1891  2p  -3526.4446  3s   -728.0582  3p   -595.3474
       3d   -387.7984  4s   -100.2345  4p    -61.2916
   2-  1s -26514.0253  2s  -3931.1891  2p  -3526.4446  3s   -728.0582  3p   -595.3474
       3d   -387.7984  4s   -100.2345  4p    -61.2916
   3-  1s -26514.0253  2s  -3931.1891  2p  -3526.4446  3s   -728.0582  3p   -595.3474
       3d   -387.7984  4s   -100.2345  4p    -61.2916
   4-  1s -26514.0253  2s  -3931.1891  2p  -3526.4446  3s   -728.0582  3p   -595.3474
       3d   -387.7984  4s   -100.2345  4p    -61.2916
   5-  1s -31613.4393  2s  -4841.0116  2p  -4344.4086  3s   -957.2137  3p   -795.8717
       3d   -552.1234  4s   -156.6945  4p   -106.7302  4d    -34.0422
   6-  1s -31613.4393  2s  -4841.0116  2p  -4344.4086  3s   -957.2137  3p   -795.8717
       3d   -552.1234  4s   -156.6945  4p   -106.7302  4d    -34.0422
   7-  1s -31613.4393  2s  -4841.0116  2p  -4344.4086  3s   -957.2137  3p   -795.8717
       3d   -552.1234  4s   -156.6945  4p   -106.7302  4d    -34.0422
   8-  1s -31613.4393  2s  -4841.0116  2p  -4344.4086  3s   -957.2137  3p   -795.8717
       3d   -552.1234  4s   -156.6945  4p   -106.7302  4d    -34.0422

 E-fermi :   2.0766     XC(G=0):  -8.2990     alpha+bet : -6.9605

 k-point     1 :       0.0000    0.0000    0.0000
  band No.  band energies     occupation
      1      -9.0426      2.00000
      2      -8.6019      2.00000
      3      -8.6019      2.00000
      4      -8.6019      2.00000
      5      -6.3059      2.00000
      6      -6.3059      2.00000
      7      -6.3059      2.00000
      8      -6.1726      2.00000
      9      -6.1726      2.00000
     10      -6.1726      2.00000
     11      -6.1726      2.00000
     12      -6.1726      2.00000
     13      -6.1726      2.00000
     14      -6.1700      2.00000
     15      -6.1700      2.00000
     16      -6.1700      2.00000
     17      -6.0909      2.00000
     18      -6.0909      2.00000
     19      -6.0654      2.00000
     20      -6.0654      2.00000
     21      -6.0654      2.00000
     22      -5.6695      2.00000
     23      -5.6695      2.00000
     24      -5.6695      2.00000
     25      -2.2234      2.00000
     26      -2.2234      2.00000
     27      -2.2234      2.00000
     28       0.1271      2.00000
     29       0.1271      2.00000
     30       0.1271      2.00000
     31       0.1271      2.00000
     32       0.1271      2.00000
     33       0.1271      2.00000
     34       1.7801      1.99997
     35       1.7801      1.99997
     36       1.7801      1.99997
     37       2.3550      0.00008
     38       4.4477      0.00000
     39       4.4477      0.00000
     40       4.4477      0.00000
     41       4.5239      0.00000
     42       4.5239      0.00000
     43       4.5239      0.00000
     44       6.4186      0.00000
     45       6.4186      0.00000
     46       6.4186      0.00000
     47       9.1515      0.00000
     48      10.2808      0.00000

[...]

 k-point   210 :       0.0000    0.0000    0.0000
  band No.  band energies     occupation
      1      -9.0426      2.00000
      2      -8.6019      2.00000
      3      -8.6019      2.00000
      4      -8.6019      2.00000
      5      -6.3059      2.00000
      6      -6.3059      2.00000
      7      -6.3059      2.00000
      8      -6.1726      2.00000
      9      -6.1726      2.00000
     10      -6.1726      2.00000
     11      -6.1726      2.00000
     12      -6.1726      2.00000
     13      -6.1726      2.00000
     14      -6.1700      2.00000
     15      -6.1700      2.00000
     16      -6.1700      2.00000
     17      -6.0909      2.00000
     18      -6.0909      2.00000
     19      -6.0654      2.00000
     20      -6.0654      2.00000
     21      -6.0654      2.00000
     22      -5.6695      2.00000
     23      -5.6695      2.00000
     24      -5.6695      2.00000
     25      -2.2234      2.00000
     26      -2.2234      2.00000
     27      -2.2234      2.00000
     28       0.1271      2.00000
     29       0.1271      2.00000
     30       0.1271      2.00000
     31       0.1271      2.00000
     32       0.1271      2.00000
     33       0.1271      2.00000
     34       1.7801      1.99997
     35       1.7801      1.99997
     36       1.7801      1.99997
     37       2.3550      0.00008
     38       4.4477      0.00000
     39       4.4477      0.00000
     40       4.4477      0.00000
     41       4.5239      0.00000
     42       4.5239      0.00000
     43       4.5239      0.00000
     44       6.4186      0.00000
     45       6.4186      0.00000
     46       6.4186      0.00000
     47       9.1515      0.00000
     48      10.2808      0.00000

 soft charge-density along one line, spin component           1
         0         1         2         3         4         5         6         7         8         9
 total charge-density along one line

------------------------ aborting loop because EDIFF is reached ----------------------------------------

 total charge

# of ion     s       p       d       tot
  1        0.462   0.282   9.533  10.277
  2        0.462   0.282   9.533  10.277
  3        0.462   0.282   9.533  10.277
  4        0.462   0.282   9.533  10.277
  5        1.353   2.031   0.017   3.401
  6        1.353   2.031   0.017   3.401
  7        1.353   2.031   0.017   3.401
  8        1.353   2.031   0.017   3.401
tot        7.260   9.251  38.201  54.712

  FORCE on cell =-STRESS in cart. coord.  units (eV):
  Direction    XX          YY          ZZ          XY          YZ          ZX
  Alpha Z   188.19369   188.19369   188.19369
  Ewald   -1363.57655 -1363.57655 -1363.57655     0.00000    -0.00000     0.00000
  Hartree   688.04543   688.04543   688.04543    -0.00000    -0.00000    -0.00000
  E(xc)    -348.65111  -348.65111  -348.65111     0.00000    -0.00000    -0.00000
  Local    -101.60804  -101.60804  -101.60804     0.00000    -0.00000    -0.00000
  n-local   101.73367   106.06317   102.81369    -2.22017    -1.90692    -0.78846
  augment    25.16982    25.16982    25.16982    -0.00000     0.00000    -0.00000
  Kinetic   805.39931   811.28362   810.12866    -2.03461    -2.11973    -0.83725
  Fock        0.00000     0.00000     0.00000     0.00000     0.00000     0.00000
  Total       0.04730     0.04730     0.04730     0.00000    -0.00000     0.00000
  in kB       0.26083     0.26083     0.26083     0.00000    -0.00000     0.00000

 VOLUME and BASIS-vectors are now :
  energy-cutoff  :      500.00
  volume of cell :      290.53
      direct lattice vectors                 reciprocal lattice vectors
     6.623110574  0.000000000  0.000000000     0.150986457  0.000000000  0.000000000
     0.000000000  6.623110574  0.000000000     0.000000000  0.150986457  0.000000000
     0.000000000  0.000000000  6.623110574     0.000000000  0.000000000  0.150986457

  length of vectors
     6.623110574  6.623110574  6.623110574     0.150986457  0.150986457  0.150986457

 FORCES acting on ions
    electron-ion (+dipol)            ewald-force                    non-local-force                 convergence-correction
   0.139E-12 0.557E-13 -.191E-12   -.568E-13 -.213E-13 -.711E-14   0.000E+00 -.228E-17 0.564E-17   0.150E-13 0.206E-12 -.398E-14
   0.161E-12 0.665E-12 0.401E-12   -.568E-13 -.213E-13 0.711E-14   0.954E-17 -.217E-17 -.434E-18   -.246E-13 0.126E-12 -.535E-13
   0.726E-12 0.596E-13 0.634E-11   -.568E-13 -.213E-13 0.711E-14   0.260E-17 0.802E-17 0.217E-17   -.305E-12 0.272E-12 0.520E-14
   0.762E-12 0.358E-11 0.196E-11   -.568E-13 -.213E-13 -.711E-14   0.000E+00 -.770E-17 0.304E-17   -.247E-12 0.290E-12 0.136E-12
   -.152E-12 0.182E-12 -.400E-13   0.633E-13 0.206E-13 -.631E-15   0.217E-16 0.260E-16 0.867E-17   -.244E-13 0.139E-12 -.238E-12
   -.224E-12 0.168E-12 -.141E-12   0.506E-13 0.220E-13 -.640E-15   0.113E-16 -.867E-17 -.347E-17   0.222E-12 0.116E-12 -.254E-12
   -.209E-12 0.528E-12 -.657E-12   0.500E-13 0.209E-13 0.548E-15   0.278E-16 -.343E-16 -.269E-16   0.233E-12 0.127E-12 -.348E-12
   -.166E-12 0.209E-13 -.916E-13   0.636E-13 0.222E-13 0.540E-15   -.278E-16 -.304E-17 -.217E-16   -.232E-13 0.130E-12 -.329E-12
   0.104E-11 0.526E-11 0.758E-11   0.147E-15 0.428E-15 -.183E-15   0.451E-16 -.241E-16 -.330E-16   -.155E-12 0.141E-11 -.109E-11

 POSITION                                       TOTAL-FORCE (eV/Angst)
      0.00000      0.00000      0.00000         0.000000      0.000000      0.000000
      0.00000      3.31156      3.31156         0.000000     -0.000000      0.000000
      3.31156      0.00000      3.31156         0.000000     -0.000000      0.000000
      3.31156      3.31156      0.00000         0.000000      0.000000      0.000000
      1.65578      1.65578      1.65578        -0.000000      0.000000     -0.000000
      4.96733      4.96733      1.65578        -0.000000      0.000000     -0.000000
      4.96733      1.65578      4.96733        -0.000000      0.000000     -0.000000
      1.65578      4.96733      4.96733        -0.000000      0.000000     -0.000000
    total drift:                                0.000000      0.000000      0.000000

  FREE ENERGIE OF THE ION-ELECTRON SYSTEM (eV)
  free  energy   TOTEN  =       -19.24382625 eV

  energy  without entropy=      -19.24382547  energy(sigma->0) =      -19.24382586

 writing wavefunctions

 total charge

# of ion     s       p       d       tot
  1        0.462   0.282   9.533  10.277
  2        0.462   0.282   9.533  10.277
  3        0.462   0.282   9.533  10.277
  4        0.462   0.282   9.533  10.277
  5        1.353   2.031   0.017   3.401
  6        1.353   2.031   0.017   3.401
  7        1.353   2.031   0.017   3.401
  8        1.353   2.031   0.017   3.401
tot        7.260   9.251  38.201  54.712