 vasp.5.4.1 24Jun15 (build Nov 25 2015 16:01:35) complex

 executed on         CrayXC-Intel date 2016.05.26  08:33:20

 INCAR:
 POTCAR:   PAW Cd 03Mar1998
 POTCAR:   PAW Te 03Oct2001

 POTCAR:   PAW Cd 03Mar1998
   VRHFIN =Cd : s2 d10

   TITEL  = PAW Cd 03Mar1998
   POMASS =  112.411; ZVAL   =   12.000    mass and valenz
   ENMAX  =  274.265; ENMIN  =  205.699 eV
   QCUT   =   -4.490; QGAM   =    8.980    optimization parameters

   Description
     l     E      TYP  RCUT    TYP  RCUT
     2   .000     23  2.300
     2   .000     23  2.300
     0   .000     23  2.300
     0   .000     23  2.300
     1  -.200     23  2.300
     1   .000     23  2.300
     3   .000      7   .000

 POTCAR:   PAW Te 03Oct2001
   VRHFIN =Te: s2p4

   TITEL  = PAW Te 03Oct2001
   POMASS =  127.600; ZVAL   =    6.000    mass and valenz
   ENMAX  =  175.144; ENMIN  =  131.358 eV
   QCUT   =   -3.588; QGAM   =    7.176    optimization parameters

   Description
     l     E      TYP  RCUT    TYP  RCUT
     0   .000     23  2.300
     0   .000     23  2.300
     1   .000     23  2.300
     1   .000     23  2.300
     2   .000     23  2.300
     3  -.100     23  2.300

 PAW Cd 03Mar1998                       :
 PAW Te 03Oct2001                       :

 POSCAR: CdTe (ICSD, 295K, Rabadanov 2001)
  positions in direct lattice
  velocities in cartesian coordinates
 exchange correlation table for  LEXCH =        2
   RHO(1)=    0.500       N(1)  =     2000
   RHO(2)=  100.500       N(2)  =     4000

 ion  position               nearest neighbor table
   1  0.000  0.000  0.000-   2 2.81   2 2.81   2 2.81   2 2.81
   2  0.250  0.250  0.250-   1 2.81   1 2.81   1 2.81   1 2.81

  LATTYP: Found a face centered cubic cell.
 ALAT       =     6.4827000000

  Lattice vectors:

 A1 = (   3.2413500000,   3.2413500000,   0.0000000000)
 A2 = (   3.2413500000,   0.0000000000,  -3.2413500000)
 A3 = (   0.0000000000,   3.2413500000,  -3.2413500000)

Analysis of symmetry for initial positions (statically):
 Subroutine PRICEL returns:
 Original cell was already a primitive cell.

 Routine SETGRP: Setting up the symmetry group for a
 face centered cubic supercell.

 Subroutine GETGRP returns: Found 24 space group operations
 (whereof 24 operations were pure point group operations)
 out of a pool of 48 trial point group operations.

The static configuration has the point symmetry T_d .

Analysis of symmetry for dynamics (positions and initial velocities):
 Subroutine PRICEL returns:
 Original cell was already a primitive cell.

 Routine SETGRP: Setting up the symmetry group for a
 face centered cubic supercell.

 Subroutine GETGRP returns: Found 24 space group operations
 (whereof 24 operations were pure point group operations)
 out of a pool of 48 trial point group operations.

The dynamic configuration has the point symmetry T_d .

 Subroutine INISYM returns: Found 24 space group operations
 (whereof 24 operations are pure point group operations),
 and found     1 'primitive' translations

 KPOINTS: Automatically generated mesh SCF: 16 ste
  k-points in reciprocal lattice
Space group operators:
 irot       det(A)        alpha          n_x          n_y          n_z        tau_x        tau_y        tau_z
    1     1.000000     0.000000     1.000000     0.000000     0.000000     0.000000     0.000000     0.000000
    2     1.000000   120.000000    -0.577350    -0.577350     0.577350     0.000000     0.000000     0.000000
    3     1.000000   120.000000     0.577350     0.577350    -0.577350     0.000000     0.000000     0.000000
    4    -1.000000    90.000000    -1.000000     0.000000     0.000000     0.000000     0.000000     0.000000
    5    -1.000000   180.000000     0.707107     0.707107     0.000000     0.000000     0.000000     0.000000
    6    -1.000000    90.000000     0.000000     1.000000     0.000000     0.000000     0.000000     0.000000
    7     1.000000   180.000000     1.000000     0.000000     0.000000     0.000000     0.000000     0.000000
    8     1.000000   120.000000     0.577350     0.577350     0.577350     0.000000     0.000000     0.000000
    9     1.000000   120.000000    -0.577350     0.577350     0.577350     0.000000     0.000000     0.000000
   10    -1.000000    90.000000     1.000000     0.000000     0.000000     0.000000     0.000000     0.000000
   11    -1.000000    90.000000     0.000000     0.000000     1.000000     0.000000     0.000000     0.000000
   12    -1.000000   180.000000     0.707107     0.000000    -0.707107     0.000000     0.000000     0.000000
   13     1.000000   120.000000     0.577350    -0.577350    -0.577350     0.000000     0.000000     0.000000
   14     1.000000   120.000000     0.577350    -0.577350     0.577350     0.000000     0.000000     0.000000
   15     1.000000   180.000000     0.000000     0.000000     1.000000     0.000000     0.000000     0.000000
   16    -1.000000    90.000000     0.000000    -1.000000     0.000000     0.000000     0.000000     0.000000
   17    -1.000000   180.000000     0.000000    -0.707107     0.707107     0.000000     0.000000     0.000000
   18    -1.000000    90.000000     0.000000     0.000000    -1.000000     0.000000     0.000000     0.000000
   19     1.000000   120.000000    -0.577350    -0.577350    -0.577350     0.000000     0.000000     0.000000
   20     1.000000   180.000000     0.000000     1.000000     0.000000     0.000000     0.000000     0.000000
   21     1.000000   120.000000    -0.577350     0.577350    -0.577350     0.000000     0.000000     0.000000
   22    -1.000000   180.000000     0.707107    -0.707107     0.000000     0.000000     0.000000     0.000000
   23    -1.000000   180.000000     0.000000     0.707107     0.707107     0.000000     0.000000     0.000000
   24    -1.000000   180.000000     0.707107     0.000000     0.707107     0.000000     0.000000     0.000000

 I would recommend the setting:
   dimension x,y,z NGX =    33 NGY =   33 NGZ =   33
 SYSTEM =  Name
 POSCAR =  CdTe (ICSD, 295K, Rabadanov 2001)

 Startparameter for this run:
   NWRITE =      2    write-flag & timer
   PREC   = accura    normal or accurate (medium, high low for compatibility)
   ISTART =      0    job   : 0-new  1-cont  2-samecut
   ICHARG =     11    charge: 1-file 2-atom 10-const
   ISPIN  =      1    spin polarized calculation?
   LNONCOLLINEAR =      F non collinear calculations
   LSORBIT =      F    spin-orbit coupling
   INIWAV =      1    electr: 0-lowe 1-rand  2-diag
   LASPH  =      F    aspherical Exc in radial PAW
   METAGGA=      F    non-selfconsistent MetaGGA calc.

 Electronic Relaxation 1
   ENCUT  =  500.0 eV  36.75 Ry    6.06 a.u.   8.36  8.36  8.36*2*pi/ulx,y,z
   ENINI  =  500.0     initial cutoff
   ENAUG  =  456.1 eV  augmentation charge cutoff
   NELM   =     60;   NELMIN=  2; NELMDL=  0     # of ELM steps
   EDIFF  = 0.1E-05   stopping-criterion for ELM
   LREAL  =      F    real-space projection
   NLSPLINE    = F    spline interpolate recip. space projectors
   LCOMPAT=      F    compatible to vasp.4.4
   GGA_COMPAT  = T    GGA compatible to vasp.4.4-vasp.4.6
   LMAXPAW     = -100 max onsite density
   LMAXMIX     =    2 max onsite mixed and CHGCAR
   VOSKOWN=      0    Vosko Wilk Nusair interpolation
   ROPT   =    0.00000   0.00000
 Ionic relaxation
   EDIFFG = -.5E-02   stopping-criterion for IOM
   NSW    =      1    number of steps for IOM
   NBLOCK =      1;   KBLOCK =      1    inner block; outer block
   IBRION =      2    ionic relax: 0-MD 1-quasi-New 2-CG
   NFREE  =      1    steps in history (QN), initial steepest desc. (CG)
   ISIF   =      3    stress and relaxation
   IWAVPR =     11    prediction:  0-non 1-charg 2-wave 3-comb
   ISYM   =      2    0-nonsym 1-usesym 2-fastsym
   LCORR  =      T    Harris-Foulkes like correction to forces

   POTIM  = 0.5000    time-step for ionic-motion
   TEIN   =    0.0    initial temperature
   TEBEG  =    0.0;   TEEND  =   0.0 temperature during run
   SMASS  =  -3.00    Nose mass-parameter (am)
   estimated Nose-frequenzy (Omega)   =  0.10E-29 period in steps =****** mass=  -0.480E-27a.u.
   SCALEE = 1.0000    scale energy and forces
   NPACO  =    256;   APACO  = 16.0  distance and # of slots for P.C.
   PSTRESS=    0.0 pullay stress

  Mass of Ions in am
   POMASS = 112.41127.60
  Ionic Valenz
   ZVAL   =  12.00  6.00
  Atomic Wigner-Seitz radii
  virtual crystal weights
   VCA    =   1.00  1.00
   NELECT =      18.0000    total number of electrons
   NUPDOWN=      -1.0000    fix difference up-down

 DOS related values:
   EMIN   =  10.00;   EMAX   =-10.00  energy-range for DOS
   EFERMI =   0.00
   ISMEAR =     0;   SIGMA  =   0.01  broadening in eV -4-tet -1-fermi 0-gaus

 Electronic relaxation 2 (details)
   IALGO  =     38    algorithm
   LDIAG  =      T    sub-space diagonalisation (order eigenvalues)
   LSUBROT=      F    optimize rotation matrix (better conditioning)
   TURBO    =      0    0=normal 1=particle mesh
   IRESTART =      0    0=no restart 2=restart with 2 vectors
   NREBOOT  =      0    no. of reboots
   NMIN     =      0    reboot dimension
   EREF     =   0.00    reference energy to select bands
   IMIX   =      4    mixing-type and parameters
     AMIX     =   0.40;   BMIX     =  1.00
     AMIX_MAG =   1.60;   BMIX_MAG =  1.00
     AMIN     =   0.01
     WC   =   100.;   INIMIX=   1;  MIXPRE=   1;  MAXMIX= -45

 Intra band minimization:
   WEIMIN = 0.0010     energy-eigenvalue tresh-hold
   EBREAK =  0.16E-07  absolut break condition
   DEPER  =   0.30     relativ break condition

   TIME   =   0.40     timestep for ELM

  volume/ion in A,a.u.               =      34.05       229.81
  Fermi-wavevector in a.u.,A,eV,Ry     =   1.050581  1.985311 15.017042  1.103721
  Thomas-Fermi vector in A             =   2.185590

 Write flags
   LWAVE  =      T    write WAVECAR
   LCHARG =      T    write CHGCAR
   LVTOT  =      F    write LOCPOT, total local potential
   LVHAR  =      F    write LOCPOT, Hartree potential only
   LELF   =      F    write electronic localiz. function (ELF)
   LORBIT =     10    0 simple, 1 ext, 2 COOP (PROOUT)

 Dipole corrections
   LMONO  =      F    monopole corrections only (constant potential shift)
   LDIPOL =      F    correct potential (dipole corrections)
   IDIPOL =      0    1-x, 2-y, 3-z, 4-all directions
   EPSILON=  1.0000000 bulk dielectric constant

 Core level calculations are selected ICORELEVEL =  1
 Exchange correlation treatment:
   GGA     =    --    GGA type
   VOSKOWN=      0    Vosko Wilk Nusair interpolation
   LHFCALC =     F    Hartree Fock is set to
   LHFONE  =     F    Hartree Fock one center treatment
   AEXX    =    0.0000 exact exchange contribution

 Linear response parameters
   LEPSILON=     F    determine dielectric tensor
   LRPA    =     F    only Hartree local field effects (RPA)
   LNABLA  =     F    use nabla operator in PAW spheres
   LVEL    =     F    velocity operator in full k-point grid
   LINTERFAST=   F  fast interpolation
   KINTER  =     0    interpolate to denser k-point grid
   CSHIFT  =0.1000    complex shift for real part using Kramers Kronig
   OMEGAMAX=  -1.0    maximum frequency
[...]
 k-point  2 :   0.1667 0.0000 0.0000  plane waves:    1747
 k-point  3 :   0.3333 0.0000 0.0000  plane waves:    1730
 k-point  4 :   0.5000 0.0000 0.0000  plane waves:    1718
 k-point  5 :   0.1667 0.1667 0.0000  plane waves:    1736
 k-point  6 :   0.3333 0.1667 0.0000  plane waves:    1729
 k-point  7 :   0.5000 0.1667 0.0000  plane waves:    1739
 k-point  8 :  -0.3333 0.1667 0.0000  plane waves:    1732
 k-point  9 :  -0.1667 0.1667 0.0000  plane waves:    1735
 k-point 10 :   0.3333 0.3333 0.0000  plane waves:    1728
 k-point 11 :   0.5000 0.3333 0.0000  plane waves:    1723
 k-point 12 :  -0.3333 0.3333 0.0000  plane waves:    1726
 k-point 13 :   0.5000 0.5000 0.0000  plane waves:    1724
 k-point 14 :   0.5000 0.3333 0.1667  plane waves:    1724
 k-point 15 :  -0.3333 0.3333 0.1667  plane waves:    1726
 k-point 16 :  -0.3333 0.5000 0.1667  plane waves:    1722
 k-point 17 :   0.0000 0.0000 0.0000  plane waves:    1759
 k-point 18 :   0.0021 0.0000 0.0021  plane waves:    1759
 k-point 19 :   0.0042 0.0000 0.0042  plane waves:    1759
 k-point 20 :   0.0063 0.0000 0.0063  plane waves:    1759
 k-point 21 :   0.0084 0.0000 0.0084  plane waves:    1767
 k-point 22 :   0.0105 0.0000 0.0105  plane waves:    1767
 k-point 23 :   0.0126 0.0000 0.0126  plane waves:    1775
 k-point 24 :   0.0147 0.0000 0.0147  plane waves:    1775
 k-point 25 :   0.0168 0.0000 0.0168  plane waves:    1771
 k-point 26 :   0.0189 0.0000 0.0189  plane waves:    1771
 k-point 27 :   0.0210 0.0000 0.0210  plane waves:    1763
 k-point 28 :   0.0231 0.0000 0.0231  plane waves:    1763
 k-point 29 :   0.0252 0.0000 0.0252  plane waves:    1755
 k-point 30 :   0.0273 0.0000 0.0273  plane waves:    1755
 k-point 31 :   0.0294 0.0000 0.0294  plane waves:    1755
 k-point 32 :   0.0315 0.0000 0.0315  plane waves:    1755
 k-point 33 :   0.0336 0.0000 0.0336  plane waves:    1755
 k-point 34 :   0.0357 0.0000 0.0357  plane waves:    1755
 k-point 35 :   0.0378 0.0000 0.0378  plane waves:    1755
 k-point 36 :   0.0399 0.0000 0.0399  plane waves:    1763
 k-point 37 :   0.0420 0.0000 0.0420  plane waves:    1763
 k-point 38 :   0.0441 0.0000 0.0441  plane waves:    1763
 k-point 39 :   0.0462 0.0000 0.0462  plane waves:    1763
 k-point 40 :   0.0483 0.0000 0.0483  plane waves:    1763
 k-point 41 :   0.0504 0.0000 0.0504  plane waves:    1763
 k-point 42 :   0.0525 0.0000 0.0525  plane waves:    1763
 k-point 43 :   0.0546 0.0000 0.0546  plane waves:    1763
 k-point 44 :   0.0567 0.0000 0.0567  plane waves:    1763
 k-point 45 :   0.0588 0.0000 0.0588  plane waves:    1747
 k-point 46 :   0.0609 0.0000 0.0609  plane waves:    1747
 k-point 47 :   0.0630 0.0000 0.0630  plane waves:    1747
 k-point 48 :   0.0651 0.0000 0.0651  plane waves:    1747
 k-point 49 :   0.0672 0.0000 0.0672  plane waves:    1747
 k-point 50 :   0.0693 0.0000 0.0693  plane waves:    1747
 k-point 51 :   0.0714 0.0000 0.0714  plane waves:    1747
 k-point 52 :   0.0735 0.0000 0.0735  plane waves:    1747
 k-point 53 :   0.0756 0.0000 0.0756  plane waves:    1747
 k-point 54 :   0.0777 0.0000 0.0777  plane waves:    1747
 k-point 55 :   0.0798 0.0000 0.0798  plane waves:    1747
 k-point 56 :   0.0819 0.0000 0.0819  plane waves:    1747
 k-point 57 :   0.0840 0.0000 0.0840  plane waves:    1747
 k-point 58 :   0.0861 0.0000 0.0861  plane waves:    1747
 k-point 59 :   0.0882 0.0000 0.0882  plane waves:    1747
 k-point 60 :   0.0903 0.0000 0.0903  plane waves:    1748
[...]
 k-point 85 :   0.1429 0.0000 0.1429  plane waves:    1748
 k-point 86 :   0.1450 0.0000 0.1450  plane waves:    1748
 k-point 87 :   0.1471 0.0000 0.1471  plane waves:    1748
 k-point 88 :   0.1492 0.0000 0.1492  plane waves:    1748
 k-point 89 :   0.1513 0.0000 0.1513  plane waves:    1736
 k-point 90 :   0.1534 0.0000 0.1534  plane waves:    1736
 k-point 91 :   0.1555 0.0000 0.1555  plane waves:    1736
 k-point 92 :   0.1576 0.0000 0.1576  plane waves:    1736
 k-point 93 :   0.1597 0.0000 0.1597  plane waves:    1736
 k-point 94 :   0.1618 0.0000 0.1618  plane waves:    1736
 k-point 95 :   0.1639 0.0000 0.1639  plane waves:    1736
 k-point 96 :   0.1660 0.0000 0.1660  plane waves:    1736
 k-point 97 :   0.1681 0.0000 0.1681  plane waves:    1736
 k-point 98 :   0.1702 0.0000 0.1702  plane waves:    1744
 k-point 99 :   0.1723 0.0000 0.1723  plane waves:    1744
 k-point ** :   0.1744 0.0000 0.1744  plane waves:    1744
 k-point ** :   0.1765 0.0000 0.1765  plane waves:    1748
 k-point ** :   0.1786 0.0000 0.1786  plane waves:    1748
 k-point ** :   0.1807 0.0000 0.1807  plane waves:    1748
 k-point ** :   0.1828 0.0000 0.1828  plane waves:    1748
 k-point ** :   0.1849 0.0000 0.1849  plane waves:    1748
 k-point ** :   0.1870 0.0000 0.1870  plane waves:    1748
 k-point ** :   0.1891 0.0000 0.1891  plane waves:    1744
 k-point ** :   0.1912 0.0000 0.1912  plane waves:    1744
 k-point ** :   0.1933 0.0000 0.1933  plane waves:    1744
 k-point ** :   0.1954 0.0000 0.1954  plane waves:    1736
 k-point ** :   0.1975 0.0000 0.1975  plane waves:    1736
 k-point ** :   0.1996 0.0000 0.1996  plane waves:    1736
 k-point ** :   0.2017 0.0000 0.2017  plane waves:    1736
 k-point ** :   0.2038 0.0000 0.2038  plane waves:    1736
 k-point ** :   0.2059 0.0000 0.2059  plane waves:    1736
 k-point ** :   0.2080 0.0000 0.2080  plane waves:    1736
 k-point ** :   0.2101 0.0000 0.2101  plane waves:    1736
 k-point ** :   0.2122 0.0000 0.2122  plane waves:    1736
 k-point ** :   0.2143 0.0000 0.2143  plane waves:    1736
 k-point ** :   0.2164 0.0000 0.2164  plane waves:    1736
 k-point ** :   0.2185 0.0000 0.2185  plane waves:    1736
 k-point ** :   0.2206 0.0000 0.2206  plane waves:    1736
 k-point ** :   0.2227 0.0000 0.2227  plane waves:    1736
 k-point ** :   0.2248 0.0000 0.2248  plane waves:    1736
 k-point ** :   0.2269 0.0000 0.2269  plane waves:    1736
 k-point ** :   0.2290 0.0000 0.2290  plane waves:    1736
 k-point ** :   0.2311 0.0000 0.2311  plane waves:    1736
 k-point ** :   0.2332 0.0000 0.2332  plane waves:    1736
 k-point ** :   0.2353 0.0000 0.2353  plane waves:    1728
 k-point ** :   0.2374 0.0000 0.2374  plane waves:    1716
 k-point ** :   0.2395 0.0000 0.2395  plane waves:    1716
 k-point ** :   0.2416 0.0000 0.2416  plane waves:    1716
 k-point ** :   0.2437 0.0000 0.2437  plane waves:    1716
 k-point ** :   0.2458 0.0000 0.2458  plane waves:    1716
 k-point ** :   0.2479 0.0000 0.2479  plane waves:    1716
 k-point ** :   0.2500 0.0000 0.2500  plane waves:    1716
 k-point ** :   0.2521 0.0000 0.2521  plane waves:    1716
 k-point ** :   0.2542 0.0000 0.2542  plane waves:    1716
 k-point ** :   0.2563 0.0000 0.2563  plane waves:    1716
 k-point ** :   0.2584 0.0000 0.2584  plane waves:    1716
 k-point ** :   0.2605 0.0000 0.2605  plane waves:    1716
 k-point ** :   0.2626 0.0000 0.2626  plane waves:    1720
 k-point ** :   0.2647 0.0000 0.2647  plane waves:    1720
 k-point ** :   0.2668 0.0000 0.2668  plane waves:    1720
 k-point ** :   0.2689 0.0000 0.2689  plane waves:    1720
 k-point ** :   0.2710 0.0000 0.2710  plane waves:    1720
 k-point ** :   0.2731 0.0000 0.2731  plane waves:    1724
 k-point ** :   0.2752 0.0000 0.2752  plane waves:    1724
 k-point ** :   0.2773 0.0000 0.2773  plane waves:    1724
 k-point ** :   0.2794 0.0000 0.2794  plane waves:    1724
 k-point ** :   0.2815 0.0000 0.2815  plane waves:    1724
 k-point ** :   0.2836 0.0000 0.2836  plane waves:    1724
 k-point ** :   0.2857 0.0000 0.2857  plane waves:    1724
 k-point ** :   0.2878 0.0000 0.2878  plane waves:    1724
 k-point ** :   0.2899 0.0000 0.2899  plane waves:    1728
 k-point ** :   0.2920 0.0000 0.2920  plane waves:    1728
 k-point ** :   0.2941 0.0000 0.2941  plane waves:    1728
 k-point ** :   0.2962 0.0000 0.2962  plane waves:    1728
 k-point ** :   0.2983 0.0000 0.2983  plane waves:    1720
[...]
 k-point ** :   0.4759 0.4759 0.4759  plane waves:    1718
 k-point ** :   0.4777 0.4777 0.4777  plane waves:    1718
 k-point ** :   0.4794 0.4794 0.4794  plane waves:    1718
 k-point ** :   0.4811 0.4811 0.4811  plane waves:    1718
 k-point ** :   0.4828 0.4828 0.4828  plane waves:    1718
 k-point ** :   0.4845 0.4845 0.4845  plane waves:    1718
 k-point ** :   0.4863 0.4863 0.4863  plane waves:    1718
 k-point ** :   0.4880 0.4880 0.4880  plane waves:    1718
 k-point ** :   0.4897 0.4897 0.4897  plane waves:    1718
 k-point ** :   0.4914 0.4914 0.4914  plane waves:    1718
 k-point ** :   0.4931 0.4931 0.4931  plane waves:    1718
 k-point ** :   0.4948 0.4948 0.4948  plane waves:    1718
 k-point ** :   0.4966 0.4966 0.4966  plane waves:    1718
 k-point ** :   0.4983 0.4983 0.4983  plane waves:    1718
 k-point ** :   0.5000 0.5000 0.5000  plane waves:    1718

 maximum and minimum number of plane-waves per node :       304      276

 maximum number of plane-waves:      1775
 maximum index in each direction:
   IXMAX=    8   IYMAX=    8   IZMAX=    8
   IXMIN=   -8   IYMIN=   -8   IZMIN=   -9

 NGX is ok and might be reduce to  34
 NGY is ok and might be reduce to  34
 NGZ is ok and might be reduce to  36

 parallel 3D FFT for wavefunctions:
    minimum data exchange during FFTs selected (reduces bandwidth)
 parallel 3D FFT for charge:
    minimum data exchange during FFTs selected (reduces bandwidth)

 initial charge density was supplied:
 number of electron      17.9999997 magnetization
 keeping initial charge density in first step

 Maximum index for augmentation-charges         1676 (set IRDMAX)

 First call to EWALD:  gamma=   0.434
 Maximum number of real-space cells 3x 3x 3
 Maximum number of reciprocal cells 3x 3x 3

 FEWALD executed in parallel

----------------------------------------- Iteration    1(   1)  ---------------------------------------

 eigenvalue-minimisations  : 32728
 total energy-change (2. order) : 0.9952609E+02  (-0.8209648E+03)
 number of electron      17.9999997 magnetization
 augmentation part       17.9999997 magnetization

 Free energy of the ion-electron system (eV)
  alpha Z        PSCENC =        48.00481358
  Ewald energy   TEWEN  =     -1044.83138452
  -Hartree energ DENC   =      -500.94267391
  -exchange      EXHF   =         0.00000000
  -V(xc)+E(xc)   XCENC  =       -21.49691907
  PAW double counting   =      1152.53605837    -1083.87723919
  entropy T*S    EENTRO =        -0.00059585
  eigenvalues    EBANDS =        28.75090618
  atomic energy  EATOM  =      1521.38312781
  Solvation  Ediel_sol  =         0.00000000
  free energy    TOTEN  =        99.52609340 eV

  energy without entropy =       99.52668925  energy(sigma->0) =       99.52639132

[...]

 eigenvalue-minimisations  : 38872
 total energy-change (2. order) :-0.1018671E+03  (-0.9723482E+02)
 number of electron      17.9999997 magnetization
 augmentation part       17.9999997 magnetization

[...]

----------------------------------------- Iteration    1(   7)  ---------------------------------------

 eigenvalue-minimisations  : 33352
 total energy-change (2. order) :-0.1398030E-07  (-0.1400012E-07)
 number of electron      17.9999997 magnetization
 augmentation part       17.9999997 magnetization

 Free energy of the ion-electron system (eV)
  alpha Z        PSCENC =        48.00481358
  Ewald energy   TEWEN  =     -1044.83138452
  -Hartree energ DENC   =      -500.94267391
  -exchange      EXHF   =         0.00000000
  -V(xc)+E(xc)   XCENC  =       -21.49691907
  PAW double counting   =      1152.53605837    -1083.87723919
  entropy T*S    EENTRO =        -0.00000000
  eigenvalues    EBANDS =       -76.79612548
  atomic energy  EATOM  =      1521.38312781
  Solvation  Ediel_sol  =         0.00000000
  free energy    TOTEN  =        -6.02034242 eV

  energy without entropy =       -6.02034242  energy(sigma->0) =       -6.02034242

 the core state eigenenergies are
   1-  1s -26363.8818  2s  -3914.0179  2p  -3517.1956  3s   -724.4051  3p   -593.6925
       3d   -387.7462  4s    -99.3801  4p    -60.4930
   2-  1s -31428.8628  2s  -4819.4449  2p  -4332.5192  3s   -952.9808  3p   -794.0663
       3d   -552.2175  4s   -155.9068  4p   -106.3924  4d    -33.4604

 E-fermi :   2.2543     XC(G=0):  -8.9429     alpha+bet : -7.4773

 k-point     1 :       0.0000    0.0000    0.0000
  band No.  band energies     occupation
      1      -9.0843      2.00000
      2      -6.1415      2.00000
      3      -6.1415      2.00000
      4      -6.1415      2.00000
      5      -5.8762      2.00000
      6      -5.8762      2.00000
      7       2.1504      2.00000
      8       2.1504      2.00000
      9       2.1504      2.00000
     10       2.6983      0.00000
     11       6.6503      0.00000
     12       6.6503      0.00000
     13       6.6503      0.00000
     14       9.3636      0.00000
     15      11.4835      0.00000
     16      11.4835      0.00000

[...]

 k-point  1012 :       0.5000    0.5000    0.5000
  band No.  band energies     occupation
      1      -8.6803      2.00000
      2      -6.0776      2.00000
      3      -6.0776      2.00000
      4      -5.8677      2.00000
      5      -5.8677      2.00000
      6      -5.5342      2.00000
      7      -2.3450      2.00000
      8       1.3650      2.00000
      9       1.3650      2.00000
     10       3.8060      0.00000
     11       7.2438      0.00000
     12       7.2438      0.00000
     13       9.0083      0.00000
     14      10.5885      0.00000
     15      12.3619      0.00000
     16      12.3619      0.00000

 soft charge-density along one line, spin component           1
         0         1         2         3         4         5         6         7         8         9
 total charge-density along one line

------------------------ aborting loop because EDIFF is reached ----------------------------------------

 total charge

# of ion     s       p       d       tot
  1        0.483   0.324   9.521  10.328
  2        1.358   2.050   0.022   3.430
tot        1.840   2.374   9.544  13.758

  FORCE on cell =-STRESS in cart. coord.  units (eV):
  Direction    XX          YY          ZZ          XY          YZ          ZX
  Alpha Z    48.00481    48.00481    48.00481
  Ewald    -348.27726  -348.27726  -348.27726     0.00000     0.00000     0.00000
  Hartree   166.97779   166.97779   166.97779     0.00000    -0.00000    -0.00000
  E(xc)     -85.67759   -85.67759   -85.67759    -0.00000     0.00000     0.00000
  Local     -20.80724   -20.80724   -20.80724     0.00001    -0.00001    -0.00001
  n-local    25.94151    31.48392    30.56438    -1.80536    -3.16126    -1.17516
  augment     5.64425     5.64425     5.64425    -0.00001     0.00001     0.00001
  Kinetic   201.77132   205.43294   205.65075    -1.64282    -3.14212    -1.24729
  Fock        0.00000     0.00000     0.00000     0.00000     0.00000     0.00000
  Total      -0.52030    -0.52030    -0.52030     0.00000     0.00000    -0.00000
  in kB     -12.23923   -12.23923   -12.23923     0.00000     0.00000    -0.00000

 VOLUME and BASIS-vectors are now :
  energy-cutoff  :      500.00
  volume of cell :       68.11
      direct lattice vectors                 reciprocal lattice vectors
     3.241350000  3.241350000  0.000000000     0.154256714  0.154256714  0.154256714
     3.241350000  0.000000000 -3.241350000     0.154256714 -0.154256714 -0.154256714
     0.000000000  3.241350000 -3.241350000    -0.154256714  0.154256714 -0.154256714

  length of vectors
     4.583961130  4.583961130  4.583961130     0.267180466  0.267180466  0.267180466

 FORCES acting on ions
    electron-ion (+dipol)            ewald-force                    non-local-force                 convergence-correction
   -.280E-08 -.303E-08 0.303E-08   -.744E-14 -.454E-14 0.998E-14   -.139E-16 0.000E+00 -.173E-16   -.390E-08 -.390E-08 0.390E-08
   0.191E-06 0.198E-06 -.198E-06   0.759E-14 0.606E-14 -.102E-13   0.000E+00 0.139E-16 0.139E-16   -.442E-09 -.442E-09 0.442E-09
   0.188E-06 0.195E-06 -.195E-06   0.152E-15 0.152E-14 -.238E-15   -.139E-16 0.139E-16 -.347E-17   -.435E-08 -.435E-08 0.435E-08

 POSITION                                       TOTAL-FORCE (eV/Angst)
      0.00000      0.00000      0.00000        -0.000000      0.000000      0.000000
      1.62068      1.62068     -1.62068         0.000000     -0.000000     -0.000000
    total drift:                                0.000000      0.000000     -0.000000

  FREE ENERGIE OF THE ION-ELECTRON SYSTEM (eV)
  free  energy   TOTEN  =        -6.02034242 eV

  energy  without entropy=       -6.02034242  energy(sigma->0) =       -6.02034242

 writing wavefunctions

 total charge

# of ion     s       p       d       tot
  1        0.483   0.324   9.521  10.328
  2        1.358   2.050   0.022   3.430
tot        1.840   2.374   9.544  13.758