 vasp.5.4.1 24Jun15 (build Nov 25 2015 16:01:35) complex

 executed on         CrayXC-Intel date 2016.09.06  22:19:59

 INCAR:
 POTCAR:   PAW Si 02Apr1999

 POTCAR:   PAW Si 02Apr1999
   VRHFIN =Si: s2p2

   TITEL  = PAW Si 02Apr1999
   POMASS =   28.085; ZVAL   =    4.000    mass and valenz
   ENMAX  =  245.704; ENMIN  =  184.278 eV
   QCUT   =   -4.250; QGAM   =    8.499    optimization parameters

   Description
     l     E      TYP  RCUT    TYP  RCUT
     0   .000     23  1.900
     0   .000     23  1.900
     1   .000     23  1.900
     1   .000     23  1.900
     2   .000      7  1.900

 PAW Si 02Apr1999                       :

 POSCAR: Si (Madelung Handbook, 295.7K)
  positions in direct lattice
  velocities in cartesian coordinates
 exchange correlation table for  LEXCH =        2
   RHO(1)=    0.500       N(1)  =     2000
   RHO(2)=  100.500       N(2)  =     4000

 ion  position               nearest neighbor table
   1  0.000  0.000  0.000-   2 2.35   2 2.35   2 2.35   2 2.35
   2  0.250  0.250  0.250-   1 2.35   1 2.35   1 2.35   1 2.35

  LATTYP: Found a face centered cubic cell.
 ALAT       =     5.4310000000

  Lattice vectors:

 A1 = (   2.7155000000,   2.7155000000,   0.0000000000)
 A2 = (   2.7155000000,   0.0000000000,  -2.7155000000)
 A3 = (   0.0000000000,   2.7155000000,  -2.7155000000)

Analysis of symmetry for initial positions (statically):
 Subroutine PRICEL returns:
 Original cell was already a primitive cell.

 Routine SETGRP: Setting up the symmetry group for a
 face centered cubic supercell.

 Subroutine GETGRP returns: Found 48 space group operations
 (whereof 24 operations were pure point group operations)
 out of a pool of 48 trial point group operations.

The static configuration has the point symmetry T_d .
 The point group associated with its full space group is O_h .

Analysis of symmetry for dynamics (positions and initial velocities):
 Subroutine PRICEL returns:
 Original cell was already a primitive cell.

 Routine SETGRP: Setting up the symmetry group for a
 face centered cubic supercell.

 Subroutine GETGRP returns: Found 48 space group operations
 (whereof 24 operations were pure point group operations)
 out of a pool of 48 trial point group operations.

The dynamic configuration has the point symmetry T_d .
 The point group associated with its full space group is O_h .

 Subroutine INISYM returns: Found 48 space group operations
 (whereof 24 operations are pure point group operations),
 and found     1 'primitive' translations

 KPOINTS: Automatically generated mesh: SCF=15,715
  k-points in reciprocal lattice
Space group operators:
 irot       det(A)        alpha          n_x          n_y          n_z        tau_x        tau_y        tau_z
    1     1.000000     0.000001     1.000000     0.000000     0.000000     0.000000     0.000000     0.000000
    2     1.000000   120.000000    -0.577350    -0.577350     0.577350     0.000000     0.000000     0.000000
    3     1.000000   120.000000     0.577350     0.577350    -0.577350     0.000000     0.000000     0.000000
    4    -1.000000    90.000000    -1.000000     0.000000     0.000000     0.000000     0.000000     0.000000
    5    -1.000000   180.000000     0.707107     0.707107     0.000000     0.000000     0.000000     0.000000
    6    -1.000000    90.000000     0.000000     1.000000     0.000000     0.000000     0.000000     0.000000
    7     1.000000   180.000000     1.000000     0.000000     0.000000     0.000000     0.000000     0.000000
    8     1.000000   120.000000     0.577350     0.577350     0.577350     0.000000     0.000000     0.000000
    9     1.000000   120.000000    -0.577350     0.577350     0.577350     0.000000     0.000000     0.000000
   10    -1.000000    90.000000     1.000000     0.000000     0.000000     0.000000     0.000000     0.000000
   11    -1.000000    90.000000     0.000000     0.000000     1.000000     0.000000     0.000000     0.000000
   12    -1.000000   180.000000     0.707107     0.000000    -0.707107     0.000000     0.000000     0.000000
   13     1.000000   120.000000     0.577350    -0.577350    -0.577350     0.000000     0.000000     0.000000
   14     1.000000   120.000000     0.577350    -0.577350     0.577350     0.000000     0.000000     0.000000
   15     1.000000   180.000000     0.000000     0.000000     1.000000     0.000000     0.000000     0.000000
   16    -1.000000    90.000000     0.000000    -1.000000     0.000000     0.000000     0.000000     0.000000
   17    -1.000000   180.000000     0.000000    -0.707107     0.707107     0.000000     0.000000     0.000000
   18    -1.000000    90.000000     0.000000     0.000000    -1.000000     0.000000     0.000000     0.000000
   19     1.000000   120.000000    -0.577350    -0.577350    -0.577350     0.000000     0.000000     0.000000
   20     1.000000   180.000000     0.000000     1.000000     0.000000     0.000000     0.000000     0.000000
   21     1.000000   120.000000    -0.577350     0.577350    -0.577350     0.000000     0.000000     0.000000
   22    -1.000000   180.000000     0.707107    -0.707107     0.000000     0.000000     0.000000     0.000000
   23    -1.000000   180.000000     0.000000     0.707107     0.707107     0.000000     0.000000     0.000000
   24    -1.000000   180.000000     0.707107     0.000000     0.707107     0.000000     0.000000     0.000000
   25    -1.000000     0.000001     1.000000     0.000000     0.000000     0.250000     0.250000     0.250000
   26    -1.000000   120.000000    -0.577350    -0.577350     0.577350     0.250000     0.250000     0.250000
   27    -1.000000   120.000000     0.577350     0.577350    -0.577350     0.250000     0.250000     0.250000
   28     1.000000    90.000000    -1.000000     0.000000     0.000000     0.250000     0.250000     0.250000
   29     1.000000   180.000000     0.707107     0.707107     0.000000     0.250000     0.250000     0.250000
   30     1.000000    90.000000     0.000000     1.000000     0.000000     0.250000     0.250000     0.250000
   31    -1.000000   180.000000     1.000000     0.000000     0.000000     0.250000     0.250000     0.250000
   32    -1.000000   120.000000     0.577350     0.577350     0.577350     0.250000     0.250000     0.250000
   33    -1.000000   120.000000    -0.577350     0.577350     0.577350     0.250000     0.250000     0.250000
   34     1.000000    90.000000     1.000000     0.000000     0.000000     0.250000     0.250000     0.250000
   35     1.000000    90.000000     0.000000     0.000000     1.000000     0.250000     0.250000     0.250000
   36     1.000000   180.000000     0.707107     0.000000    -0.707107     0.250000     0.250000     0.250000
   37    -1.000000   120.000000     0.577350    -0.577350    -0.577350     0.250000     0.250000     0.250000
   38    -1.000000   120.000000     0.577350    -0.577350     0.577350     0.250000     0.250000     0.250000
   39    -1.000000   180.000000     0.000000     0.000000     1.000000     0.250000     0.250000     0.250000
   40     1.000000    90.000000     0.000000    -1.000000     0.000000     0.250000     0.250000     0.250000
   41     1.000000   180.000000     0.000000    -0.707107     0.707107     0.250000     0.250000     0.250000
   42     1.000000    90.000000     0.000000     0.000000    -1.000000     0.250000     0.250000     0.250000
   43    -1.000000   120.000000    -0.577350    -0.577350    -0.577350     0.250000     0.250000     0.250000
   44    -1.000000   180.000000     0.000000     1.000000     0.000000     0.250000     0.250000     0.250000
   45    -1.000000   120.000000    -0.577350     0.577350    -0.577350     0.250000     0.250000     0.250000
   46     1.000000   180.000000     0.707107    -0.707107     0.000000     0.250000     0.250000     0.250000
   47     1.000000   180.000000     0.000000     0.707107     0.707107     0.250000     0.250000     0.250000
   48     1.000000   180.000000     0.707107     0.000000     0.707107     0.250000     0.250000     0.250000

 I would recommend the setting:
   dimension x,y,z NGX =    28 NGY =   28 NGZ =   28
 SYSTEM =  Name
 POSCAR =  Si (Madelung Handbook, 295.7K)

 Startparameter for this run:
   NWRITE =      2    write-flag & timer
   PREC   = accura    normal or accurate (medium, high low for compatibility)
   ISTART =      0    job   : 0-new  1-cont  2-samecut
   ICHARG =     11    charge: 1-file 2-atom 10-const
   ISPIN  =      1    spin polarized calculation?
   LNONCOLLINEAR =      F non collinear calculations
   LSORBIT =      F    spin-orbit coupling
   INIWAV =      1    electr: 0-lowe 1-rand  2-diag
   LASPH  =      F    aspherical Exc in radial PAW
   METAGGA=      F    non-selfconsistent MetaGGA calc.

 Electronic Relaxation 1
   ENCUT  =  500.0 eV  36.75 Ry    6.06 a.u.   7.00  7.00  7.00*2*pi/ulx,y,z
   ENINI  =  500.0     initial cutoff
   ENAUG  =  322.1 eV  augmentation charge cutoff
   NELM   =     60;   NELMIN=  2; NELMDL=  0     # of ELM steps
   EDIFF  = 0.1E-05   stopping-criterion for ELM
   LREAL  =      F    real-space projection
   NLSPLINE    = F    spline interpolate recip. space projectors
   LCOMPAT=      F    compatible to vasp.4.4
   GGA_COMPAT  = T    GGA compatible to vasp.4.4-vasp.4.6
   LMAXPAW     = -100 max onsite density
   LMAXMIX     =    2 max onsite mixed and CHGCAR
   VOSKOWN=      0    Vosko Wilk Nusair interpolation
   ROPT   =    0.00000
 Ionic relaxation
   EDIFFG = -.5E-02   stopping-criterion for IOM
   NSW    =      1    number of steps for IOM
   NBLOCK =      1;   KBLOCK =      1    inner block; outer block
   IBRION =      2    ionic relax: 0-MD 1-quasi-New 2-CG
   NFREE  =      1    steps in history (QN), initial steepest desc. (CG)
   ISIF   =      3    stress and relaxation
   IWAVPR =     11    prediction:  0-non 1-charg 2-wave 3-comb
   ISYM   =      2    0-nonsym 1-usesym 2-fastsym
   LCORR  =      T    Harris-Foulkes like correction to forces

   POTIM  = 0.5000    time-step for ionic-motion
   TEIN   =    0.0    initial temperature
   TEBEG  =    0.0;   TEEND  =   0.0 temperature during run
   SMASS  =  -3.00    Nose mass-parameter (am)
   estimated Nose-frequenzy (Omega)   =  0.10E-29 period in steps =****** mass=  -0.337E-27a.u.
   SCALEE = 1.0000    scale energy and forces
   NPACO  =    256;   APACO  = 16.0  distance and # of slots for P.C.
   PSTRESS=    0.0 pullay stress

  Mass of Ions in am
   POMASS =  28.09
  Ionic Valenz
   ZVAL   =   4.00
  Atomic Wigner-Seitz radii
  virtual crystal weights
   VCA    =   1.00
   NELECT =       8.0000    total number of electrons
   NUPDOWN=      -1.0000    fix difference up-down

 DOS related values:
   EMIN   =  10.00;   EMAX   =-10.00  energy-range for DOS
   EFERMI =   0.00
   ISMEAR =     0;   SIGMA  =   0.01  broadening in eV -4-tet -1-fermi 0-gaus

 Electronic relaxation 2 (details)
   IALGO  =     38    algorithm
   LDIAG  =      T    sub-space diagonalisation (order eigenvalues)
   LSUBROT=      F    optimize rotation matrix (better conditioning)
   TURBO    =      0    0=normal 1=particle mesh
   IRESTART =      0    0=no restart 2=restart with 2 vectors
   NREBOOT  =      0    no. of reboots
[...]
   0.42300001  0.49009901  0.42300001       0.000
   0.42300001  0.49257424  0.42300001       0.000
   0.42300001  0.49504951  0.42300001       0.000
   0.42300001  0.49752474  0.42300001       0.000

 position of ions in fractional coordinates (direct lattice)
   0.00000000  0.00000000  0.00000000
   0.25000000  0.25000000  0.25000000

 position of ions in cartesian coordinates  (Angst):
   0.00000000  0.00000000  0.00000000
   1.35775000  1.35775000 -1.35775000

 k-point  1 :   0.0000 0.0000 0.0000  plane waves:     965
 k-point  2 :   0.1667 0.0000 0.0000  plane waves:     989
 k-point  3 :   0.3333 0.0000 0.0000  plane waves:    1008
 k-point  4 :   0.5000 0.0000 0.0000  plane waves:    1008
 k-point  5 :   0.1667 0.1667 0.0000  plane waves:     998
 k-point  6 :   0.3333 0.1667 0.0000  plane waves:    1011
 k-point  7 :   0.5000 0.1667 0.0000  plane waves:    1017
 k-point  8 :  -0.3333 0.1667 0.0000  plane waves:    1019
 k-point  9 :  -0.1667 0.1667 0.0000  plane waves:    1013
 k-point 10 :   0.3333 0.3333 0.0000  plane waves:    1018
 k-point 11 :   0.5000 0.3333 0.0000  plane waves:    1012
 k-point 12 :  -0.3333 0.3333 0.0000  plane waves:    1015
 k-point 13 :   0.5000 0.5000 0.0000  plane waves:    1034
 k-point 14 :   0.5000 0.3333 0.1667  plane waves:    1032
 k-point 15 :  -0.3333 0.3333 0.1667  plane waves:    1020
 k-point 16 :   0.0000 0.0000 0.4230  plane waves:    1023
 k-point 17 :   0.0025 0.0000 0.4230  plane waves:    1023
 k-point 18 :   0.0049 0.0000 0.4230  plane waves:    1023
 k-point 19 :   0.0074 0.0000 0.4230  plane waves:    1023
 k-point 20 :   0.0099 0.0000 0.4230  plane waves:    1023
 k-point 21 :   0.0124 0.0000 0.4230  plane waves:    1021
 k-point 22 :   0.0148 0.0000 0.4230  plane waves:    1021
 k-point 23 :   0.0173 0.0000 0.4230  plane waves:    1021
 k-point 24 :   0.0198 0.0000 0.4230  plane waves:    1019
 k-point 25 :   0.0223 0.0000 0.4230  plane waves:    1019
 k-point 26 :   0.0247 0.0000 0.4230  plane waves:    1021
 k-point 27 :   0.0272 0.0000 0.4230  plane waves:    1023
 k-point 28 :   0.0297 0.0000 0.4230  plane waves:    1023
 k-point 29 :   0.0322 0.0000 0.4230  plane waves:    1022
 k-point 30 :   0.0346 0.0000 0.4230  plane waves:    1022
 k-point 31 :   0.0371 0.0000 0.4230  plane waves:    1022
 k-point 32 :   0.0396 0.0000 0.4230  plane waves:    1022
 k-point 33 :   0.0421 0.0000 0.4230  plane waves:    1022
 k-point 34 :   0.0445 0.0000 0.4230  plane waves:    1022
 k-point 35 :   0.0470 0.0000 0.4230  plane waves:    1022
 k-point 36 :   0.0495 0.0000 0.4230  plane waves:    1021
 k-point 37 :   0.0519 0.0000 0.4230  plane waves:    1019
 k-point 38 :   0.0544 0.0000 0.4230  plane waves:    1019
 k-point 39 :   0.0569 0.0000 0.4230  plane waves:    1019
 k-point 40 :   0.0594 0.0000 0.4230  plane waves:    1019
 k-point 41 :   0.0618 0.0000 0.4230  plane waves:    1017
 k-point 42 :   0.0643 0.0000 0.4230  plane waves:    1017
 k-point 43 :   0.0668 0.0000 0.4230  plane waves:    1017
 k-point 44 :   0.0693 0.0000 0.4230  plane waves:    1017
 k-point 45 :   0.0717 0.0000 0.4230  plane waves:    1015
 k-point 46 :   0.0742 0.0000 0.4230  plane waves:    1015
 k-point 47 :   0.0767 0.0000 0.4230  plane waves:    1017
 k-point 48 :   0.0792 0.0000 0.4230  plane waves:    1017
 k-point 49 :   0.0816 0.0000 0.4230  plane waves:    1017
 k-point 50 :   0.0841 0.0000 0.4230  plane waves:    1017
 k-point 51 :   0.0866 0.0000 0.4230  plane waves:    1017
 k-point 52 :   0.0891 0.0000 0.4230  plane waves:    1017
 k-point 53 :   0.0915 0.0000 0.4230  plane waves:    1015
 k-point 54 :   0.0940 0.0000 0.4230  plane waves:    1015
 k-point 55 :   0.0965 0.0000 0.4230  plane waves:    1015
 k-point 56 :   0.0989 0.0000 0.4230  plane waves:    1015
 k-point 57 :   0.1014 0.0000 0.4230  plane waves:    1015
 k-point 58 :   0.1039 0.0000 0.4230  plane waves:    1015
 k-point 59 :   0.1064 0.0000 0.4230  plane waves:    1017
 k-point 60 :   0.1088 0.0000 0.4230  plane waves:    1017
[...]
 k-point 85 :   0.1707 0.0000 0.4230  plane waves:    1016
 k-point 86 :   0.1732 0.0000 0.4230  plane waves:    1016
 k-point 87 :   0.1756 0.0000 0.4230  plane waves:    1016
 k-point 88 :   0.1781 0.0000 0.4230  plane waves:    1016
 k-point 89 :   0.1806 0.0000 0.4230  plane waves:    1016
 k-point 90 :   0.1831 0.0000 0.4230  plane waves:    1016
 k-point 91 :   0.1855 0.0000 0.4230  plane waves:    1016
 k-point 92 :   0.1880 0.0000 0.4230  plane waves:    1016
 k-point 93 :   0.1905 0.0000 0.4230  plane waves:    1016
 k-point 94 :   0.1929 0.0000 0.4230  plane waves:    1017
 k-point 95 :   0.1954 0.0000 0.4230  plane waves:    1017
 k-point 96 :   0.1979 0.0000 0.4230  plane waves:    1017
 k-point 97 :   0.2004 0.0000 0.4230  plane waves:    1019
 k-point 98 :   0.2028 0.0000 0.4230  plane waves:    1023
 k-point 99 :   0.2053 0.0000 0.4230  plane waves:    1023
 k-point ** :   0.2078 0.0000 0.4230  plane waves:    1021
 k-point ** :   0.2103 0.0000 0.4230  plane waves:    1021
 k-point ** :   0.2127 0.0000 0.4230  plane waves:    1021
 k-point ** :   0.2152 0.0000 0.4230  plane waves:    1021
 k-point ** :   0.2177 0.0000 0.4230  plane waves:    1023
 k-point ** :   0.2202 0.0000 0.4230  plane waves:    1023
 k-point ** :   0.2226 0.0000 0.4230  plane waves:    1025
 k-point ** :   0.2251 0.0000 0.4230  plane waves:    1024
 k-point ** :   0.2276 0.0000 0.4230  plane waves:    1024
 k-point ** :   0.2301 0.0000 0.4230  plane waves:    1024
 k-point ** :   0.2325 0.0000 0.4230  plane waves:    1024
 k-point ** :   0.2350 0.0000 0.4230  plane waves:    1024
 k-point ** :   0.2375 0.0000 0.4230  plane waves:    1024
 k-point ** :   0.2399 0.0000 0.4230  plane waves:    1024
 k-point ** :   0.2424 0.0000 0.4230  plane waves:    1024
 k-point ** :   0.2449 0.0000 0.4230  plane waves:    1024
 k-point ** :   0.2474 0.0000 0.4230  plane waves:    1024
 k-point ** :   0.2498 0.0000 0.4230  plane waves:    1024
 k-point ** :   0.2523 0.0000 0.4230  plane waves:    1025
 k-point ** :   0.2548 0.0000 0.4230  plane waves:    1025
 k-point ** :   0.2573 0.0000 0.4230  plane waves:    1023
 k-point ** :   0.2597 0.0000 0.4230  plane waves:    1021
 k-point ** :   0.2622 0.0000 0.4230  plane waves:    1021
 k-point ** :   0.2647 0.0000 0.4230  plane waves:    1021
 k-point ** :   0.2672 0.0000 0.4230  plane waves:    1021
 k-point ** :   0.2696 0.0000 0.4230  plane waves:    1021
 k-point ** :   0.2721 0.0000 0.4230  plane waves:    1023
 k-point ** :   0.2746 0.0000 0.4230  plane waves:    1023
 k-point ** :   0.2771 0.0000 0.4230  plane waves:    1023
 k-point ** :   0.2795 0.0000 0.4230  plane waves:    1025
 k-point ** :   0.2820 0.0000 0.4230  plane waves:    1025
 k-point ** :   0.2845 0.0000 0.4230  plane waves:    1025
 k-point ** :   0.2869 0.0000 0.4230  plane waves:    1025
 k-point ** :   0.2894 0.0000 0.4230  plane waves:    1025
 k-point ** :   0.2919 0.0000 0.4230  plane waves:    1025
 k-point ** :   0.2944 0.0000 0.4230  plane waves:    1023
 k-point ** :   0.2968 0.0000 0.4230  plane waves:    1023
 k-point ** :   0.2993 0.0000 0.4230  plane waves:    1021
 k-point ** :   0.3018 0.0000 0.4230  plane waves:    1021
 k-point ** :   0.3043 0.0000 0.4230  plane waves:    1023
 k-point ** :   0.3067 0.0000 0.4230  plane waves:    1023
 k-point ** :   0.3092 0.0000 0.4230  plane waves:    1023
 k-point ** :   0.3117 0.0000 0.4230  plane waves:    1025
 k-point ** :   0.3142 0.0000 0.4230  plane waves:    1025
 k-point ** :   0.3166 0.0000 0.4230  plane waves:    1024
 k-point ** :   0.3191 0.0000 0.4230  plane waves:    1024
 k-point ** :   0.3216 0.0000 0.4230  plane waves:    1024
 k-point ** :   0.3241 0.0000 0.4230  plane waves:    1026
 k-point ** :   0.3265 0.0000 0.4230  plane waves:    1026
 k-point ** :   0.3290 0.0000 0.4230  plane waves:    1026
 k-point ** :   0.3315 0.0000 0.4230  plane waves:    1026
 k-point ** :   0.3339 0.0000 0.4230  plane waves:    1024
 k-point ** :   0.3364 0.0000 0.4230  plane waves:    1022
 k-point ** :   0.3389 0.0000 0.4230  plane waves:    1022
 k-point ** :   0.3414 0.0000 0.4230  plane waves:    1022
 k-point ** :   0.3438 0.0000 0.4230  plane waves:    1022
 k-point ** :   0.3463 0.0000 0.4230  plane waves:    1022
 k-point ** :   0.3488 0.0000 0.4230  plane waves:    1022
 k-point ** :   0.3513 0.0000 0.4230  plane waves:    1022
 k-point ** :   0.3537 0.0000 0.4230  plane waves:    1022
[...]
 k-point ** :   0.4230 0.4629 0.4230  plane waves:    1023
 k-point ** :   0.4230 0.4653 0.4230  plane waves:    1023
 k-point ** :   0.4230 0.4678 0.4230  plane waves:    1023
 k-point ** :   0.4230 0.4703 0.4230  plane waves:    1022
 k-point ** :   0.4230 0.4728 0.4230  plane waves:    1022
 k-point ** :   0.4230 0.4752 0.4230  plane waves:    1022
 k-point ** :   0.4230 0.4777 0.4230  plane waves:    1020
 k-point ** :   0.4230 0.4802 0.4230  plane waves:    1020
 k-point ** :   0.4230 0.4827 0.4230  plane waves:    1020
 k-point ** :   0.4230 0.4851 0.4230  plane waves:    1020
 k-point ** :   0.4230 0.4876 0.4230  plane waves:    1020
 k-point ** :   0.4230 0.4901 0.4230  plane waves:    1020
 k-point ** :   0.4230 0.4926 0.4230  plane waves:    1020
 k-point ** :   0.4230 0.4950 0.4230  plane waves:    1018
 k-point ** :   0.4230 0.4975 0.4230  plane waves:    1018

 maximum and minimum number of plane-waves per node :       182      151

 maximum number of plane-waves:      1034
 maximum index in each direction:
   IXMAX=    7   IYMAX=    7   IZMAX=    7
   IXMIN=   -7   IYMIN=   -7   IZMIN=   -7

 WARNING: aliasing errors must be expected set NGX to  30 to avoid them
 WARNING: aliasing errors must be expected set NGY to  30 to avoid them
 WARNING: aliasing errors must be expected set NGZ to  30 to avoid them
 aliasing errors are usually negligible using standard VASP settings
 and one can safely disregard these warnings

 parallel 3D FFT for wavefunctions:
    minimum data exchange during FFTs selected (reduces bandwidth)
 parallel 3D FFT for charge:
    minimum data exchange during FFTs selected (reduces bandwidth)

 initial charge density was supplied:
 number of electron       8.0000001 magnetization
 keeping initial charge density in first step

 Maximum index for augmentation-charges         1360 (set IRDMAX)

 First call to EWALD:  gamma=   0.518
 Maximum number of real-space cells 3x 3x 3
 Maximum number of reciprocal cells 3x 3x 3

 FEWALD executed in parallel

----------------------------------------- Iteration    1(   1)  ---------------------------------------

 eigenvalue-minimisations  : 11712
 total energy-change (2. order) : 0.6483734E+01  (-0.3160422E+03)
 number of electron       8.0000001 magnetization
 augmentation part        8.0000001 magnetization

 Free energy of the ion-electron system (eV)
  alpha Z        PSCENC =         2.36771343
  Ewald energy   TEWEN  =      -228.52143995
  -Hartree energ DENC   =       -14.91421964
  -exchange      EXHF   =         0.00000000
  -V(xc)+E(xc)   XCENC  =       -17.96442577
  PAW double counting   =        75.27329546      -40.66766249
  entropy T*S    EENTRO =        -0.00017624
  eigenvalues    EBANDS =        24.04431576
  atomic energy  EATOM  =       206.86633348
  Solvation  Ediel_sol  =         0.00000000
  free energy    TOTEN  =         6.48373405 eV

  energy without entropy =        6.48391028  energy(sigma->0) =        6.48382216

[...]

 eigenvalue-minimisations  : 18032
 total energy-change (2. order) :-0.1785059E+02  (-0.1770421E+02)
 number of electron       8.0000001 magnetization
 augmentation part        8.0000001 magnetization

[...]

----------------------------------------- Iteration    1(   6)  ---------------------------------------

 eigenvalue-minimisations  : 17936
 total energy-change (2. order) :-0.8208644E-08  (-0.8208634E-08)
 number of electron       8.0000001 magnetization
 augmentation part        8.0000001 magnetization

 Free energy of the ion-electron system (eV)
  alpha Z        PSCENC =         2.36771343
  Ewald energy   TEWEN  =      -228.52143995
  -Hartree energ DENC   =       -14.91421964
  -exchange      EXHF   =         0.00000000
  -V(xc)+E(xc)   XCENC  =       -17.96442577
  PAW double counting   =        75.27329546      -40.66766249
  entropy T*S    EENTRO =        -0.00000000
  eigenvalues    EBANDS =         5.95632848
  atomic energy  EATOM  =       206.86633348
  Solvation  Ediel_sol  =         0.00000000
  free energy    TOTEN  =       -11.60407700 eV

  energy without entropy =      -11.60407700  energy(sigma->0) =      -11.60407700

 the core state eigenenergies are
   1-  1s  -1763.7158  2s   -126.8064  2p    -83.6532
   2-  1s  -1763.7158  2s   -126.8064  2p    -83.6532

 E-fermi :   5.8506     XC(G=0):  -9.6022     alpha+bet :-12.0860

 k-point     1 :       0.0000    0.0000    0.0000
  band No.  band energies     occupation
      1      -6.1818      2.00000
      2       5.7767      2.00000
      3       5.7767      2.00000
      4       5.7767      2.00000
      5       8.2967      0.00000
      6       8.2967      0.00000
      7       8.2967      0.00000
      8       8.9835      0.00000

[...]

 k-point   730 :       0.4230    0.4975    0.4230
  band No.  band energies     occupation
      1      -3.9259      2.00000
      2      -0.9674      2.00000
      3       4.0045      2.00000
      4       4.5578      2.00000
      5       7.6738      0.00000
      6       9.0805      0.00000
      7       9.2579      0.00000
      8      13.5658      0.00000

 soft charge-density along one line, spin component           1
         0         1         2         3         4         5         6         7         8         9
 total charge-density along one line

------------------------ aborting loop because EDIFF is reached ----------------------------------------

 total charge

# of ion     s       p       d       tot
  1        0.752   0.957   0.000   1.709
  2        0.752   0.957   0.000   1.709
tot        1.504   1.913   0.000   3.417

  FORCE on cell =-STRESS in cart. coord.  units (eV):
  Direction    XX          YY          ZZ          XY          YZ          ZX
  Alpha Z     2.36771     2.36771     2.36771
  Ewald     -76.17385   -76.17385   -76.17385     0.00000     0.00000    -0.00000
  Hartree     5.02913     5.02913     5.02913     0.00000    -0.00000    -0.00000
  E(xc)     -25.95274   -25.95274   -25.95274    -0.00000     0.00000     0.00000
  Local     -30.65647   -30.65647   -30.65647     0.00001    -0.00001    -0.00001
  n-local    76.60510    82.56201    81.76108    -1.19414    -2.67699    -0.77691
  augment   -12.49287   -12.49287   -12.49287    -0.00001     0.00001     0.00001
  Kinetic    55.69959    57.65130    59.30500    -0.96127    -3.76950    -0.97046
  Fock        0.00000     0.00000     0.00000     0.00000     0.00000     0.00000
  Total      -0.01772    -0.01772    -0.01772     0.00000     0.00000    -0.00000
  in kB      -0.70908    -0.70908    -0.70908     0.00000     0.00000    -0.00000

 VOLUME and BASIS-vectors are now :
  energy-cutoff  :      500.00
  volume of cell :       40.05
      direct lattice vectors                 reciprocal lattice vectors
     2.715500000  2.715500000  0.000000000     0.184128153  0.184128153  0.184128153
     2.715500000  0.000000000 -2.715500000     0.184128153 -0.184128153 -0.184128153
     0.000000000  2.715500000 -2.715500000    -0.184128153  0.184128153 -0.184128153

  length of vectors
     3.840296929  3.840296929  3.840296929     0.318919316  0.318919316  0.318919316

 FORCES acting on ions
    electron-ion (+dipol)            ewald-force                    non-local-force                 convergence-correction
   -.809E-08 -.448E-08 0.449E-08   -.923E-14 -.515E-14 0.930E-14   0.121E-15 0.104E-15 -.111E-15   -.187E-09 -.187E-09 0.187E-09
   0.809E-08 0.449E-08 -.449E-08   0.907E-14 0.563E-14 -.939E-14   -.132E-15 -.971E-16 0.125E-15   0.187E-09 0.187E-09 -.187E-09
   -.164E-13 0.410E-13 -.110E-12   -.164E-15 0.474E-15 -.970E-16   -.104E-16 0.694E-17 0.139E-16   0.538E-14 0.288E-14 0.400E-14

 POSITION                                       TOTAL-FORCE (eV/Angst)
      0.00000      0.00000      0.00000        -0.000000      0.000000      0.000000
      1.35775      1.35775     -1.35775         0.000000     -0.000000     -0.000000
    total drift:                               -0.000000      0.000000     -0.000000

  FREE ENERGIE OF THE ION-ELECTRON SYSTEM (eV)
  free  energy   TOTEN  =       -11.60407700 eV

  energy  without entropy=      -11.60407700  energy(sigma->0) =      -11.60407700

 writing wavefunctions

 total charge

# of ion     s       p       d       tot
  1        0.752   0.957   0.000   1.709
  2        0.752   0.957   0.000   1.709
tot        1.504   1.913   0.000   3.417