 vasp.5.4.1 24Jun15 (build Nov 25 2015 16:39:35) complex

 executed on         CrayXC-Intel date 2016.09.26  10:57:13

 INCAR:
 POTCAR:    PAW_PBE Cd 06Sep2000
 POTCAR:    PAW_PBE Te 08Apr2002

 POTCAR:    PAW_PBE Cd 06Sep2000
   VRHFIN =Cd : s2 d10

   TITEL  = PAW_PBE Cd 06Sep2000
   POMASS =  112.411; ZVAL   =   12.000    mass and valenz
   ENMAX  =  274.336; ENMIN  =  205.752 eV

 POTCAR:    PAW_PBE Te 08Apr2002
   VRHFIN =Te: s2p4

   TITEL  = PAW_PBE Te 08Apr2002
   POMASS =  127.600; ZVAL   =    6.000    mass and valenz
   ENMAX  =  174.982; ENMIN  =  131.236 eV

  PAW_PBE Cd 06Sep2000                  :
  PAW_PBE Te 08Apr2002                  :

 POSCAR: CdTe (ICSD, 295K, Rabadanov 2001)
  positions in direct lattice
  velocities in cartesian coordinates
 exchange correlation table for  LEXCH =       14
   RHO(1)=    0.500       N(1)  =     2000
   RHO(2)=  100.500       N(2)  =     4000

 ion  position               nearest neighbor table
   1  0.000  0.000  0.000-   2 2.81   2 2.81   2 2.81   2 2.81
   2  0.250  0.250  0.250-   1 2.81   1 2.81   1 2.81   1 2.81

  LATTYP: Found a face centered cubic cell.
 ALAT       =     6.4827000000

  Lattice vectors:

 A1 = (   3.2413500000,   3.2413500000,   0.0000000000)
 A2 = (   3.2413500000,   0.0000000000,  -3.2413500000)
 A3 = (   0.0000000000,   3.2413500000,  -3.2413500000)

Analysis of symmetry for initial positions (statically):
 Subroutine PRICEL returns:
 Original cell was already a primitive cell.

 Routine SETGRP: Setting up the symmetry group for a
 face centered cubic supercell.

 Subroutine GETGRP returns: Found 24 space group operations
 (whereof 24 operations were pure point group operations)
 out of a pool of 48 trial point group operations.

The static configuration has the point symmetry T_d .

Analysis of symmetry for dynamics (positions and initial velocities):
 Subroutine PRICEL returns:
 Original cell was already a primitive cell.

[...]

The dynamic configuration has the point symmetry T_d .

Analysis of structural, dynamic, and magnetic symmetry:
 Subroutine PRICEL returns:
 Original cell was already a primitive cell.

 Routine SETGRP: Setting up the symmetry group for a
 face centered cubic supercell.

 Subroutine GETGRP returns: Found  3 space group operations
 (whereof  3 operations were pure point group operations)
 out of a pool of 48 trial point group operations.

The (compounded) configuration has the point symmetry C_3 .

 Subroutine INISYM returns: Found  3 space group operations
 (whereof  3 operations are pure point group operations),
 and found     1 'primitive' translations

 KPOINTS: Automatic mesh

Automatic generation of k-mesh.
Space group operators:
 irot       det(A)        alpha          n_x          n_y          n_z        tau_x        tau_y        tau_z
    1     1.000000     0.000000     1.000000     0.000000     0.000000     0.000000     0.000000     0.000000
    2     1.000000   120.000000     0.577350     0.577350     0.577350     0.000000     0.000000     0.000000
    3     1.000000   120.000000    -0.577350    -0.577350    -0.577350     0.000000     0.000000     0.000000

 Subroutine IBZKPT returns following result:

 Found     76 irreducible k-points:

 Following reciprocal coordinates:
            Coordinates               Weight
  0.000000  0.000000  0.000000      1.000000
  0.166667  0.000000  0.000000      1.000000
  0.333333  0.000000  0.000000      1.000000
  0.500000  0.000000  0.000000      1.000000
 -0.333333  0.000000  0.000000      1.000000
 -0.166667  0.000000  0.000000      1.000000
  0.000000  0.166667  0.000000      3.000000
  0.166667  0.166667  0.000000      3.000000
  0.333333  0.166667  0.000000      3.000000
  0.500000  0.166667  0.000000      3.000000
 -0.333333  0.166667  0.000000      3.000000
 -0.166667  0.166667  0.000000      3.000000
  0.000000  0.333333  0.000000      3.000000
  0.166667  0.333333  0.000000      3.000000
  0.333333  0.333333  0.000000      3.000000
  0.500000  0.333333  0.000000      3.000000
 -0.333333  0.333333  0.000000      3.000000
 -0.166667  0.333333  0.000000      3.000000
  0.000000  0.500000  0.000000      3.000000
  0.166667  0.500000  0.000000      3.000000
  0.333333  0.500000  0.000000      3.000000
  0.500000  0.500000  0.000000      3.000000
 -0.333333  0.500000  0.000000      3.000000
 -0.166667  0.500000  0.000000      3.000000
  0.000000 -0.333333  0.000000      3.000000
  0.166667 -0.333333  0.000000      3.000000
  0.333333 -0.333333  0.000000      3.000000
  0.500000 -0.333333  0.000000      3.000000
 -0.333333 -0.333333  0.000000      3.000000
 -0.166667 -0.333333  0.000000      3.000000
  0.000000 -0.166667  0.000000      3.000000
  0.166667 -0.166667  0.000000      3.000000
  0.333333 -0.166667  0.000000      3.000000
  0.500000 -0.166667  0.000000      3.000000
 -0.333333 -0.166667  0.000000      3.000000
 -0.166667 -0.166667  0.000000      3.000000
  0.000000  0.333333  0.166667      3.000000
  0.166667  0.333333  0.166667      3.000000
  0.333333  0.333333  0.166667      3.000000
  0.500000  0.333333  0.166667      3.000000
 -0.333333  0.333333  0.166667      3.000000
 -0.166667  0.333333  0.166667      3.000000
  0.000000  0.500000  0.166667      3.000000
  0.166667  0.500000  0.166667      3.000000
  0.333333  0.500000  0.166667      3.000000
  0.500000  0.500000  0.166667      3.000000
 -0.333333  0.500000  0.166667      3.000000
 -0.166667  0.500000  0.166667      3.000000
  0.000000 -0.333333  0.166667      3.000000
  0.166667 -0.333333  0.166667      3.000000
  0.333333 -0.333333  0.166667      3.000000
  0.500000 -0.333333  0.166667      3.000000
 -0.333333 -0.333333  0.166667      3.000000
 -0.166667 -0.333333  0.166667      3.000000
  0.000000  0.166667  0.333333      3.000000
  0.166667  0.166667  0.333333      3.000000
  0.333333  0.166667  0.333333      3.000000
  0.500000  0.166667  0.333333      3.000000
 -0.333333  0.166667  0.333333      3.000000
 -0.166667  0.166667  0.333333      3.000000
  0.000000 -0.333333  0.333333      3.000000
  0.166667 -0.333333  0.333333      3.000000
  0.000000  0.166667  0.500000      3.000000
  0.166667  0.166667  0.500000      3.000000
  0.333333  0.166667  0.500000      3.000000
  0.500000  0.166667  0.500000      3.000000
 -0.333333  0.166667  0.500000      3.000000
 -0.166667  0.166667  0.500000      3.000000
  0.000000  0.333333  0.500000      3.000000
  0.166667  0.333333  0.500000      3.000000
  0.333333  0.333333  0.500000      3.000000
  0.500000  0.333333  0.500000      3.000000
 -0.333333  0.333333  0.500000      3.000000
 -0.166667  0.333333  0.500000      3.000000
  0.000000  0.333333 -0.333333      3.000000
  0.166667  0.333333 -0.333333      3.000000

 Following cartesian coordinates:
            Coordinates               Weight
  0.000000  0.000000  0.000000      1.000000
  0.166667  0.166667  0.166667      1.000000
  0.333333  0.333333  0.333333      1.000000
  0.500000  0.500000  0.500000      1.000000
 -0.333333 -0.333333 -0.333333      1.000000
 -0.166667 -0.166667 -0.166667      1.000000
  0.166667 -0.166667 -0.166667      3.000000
  0.333333  0.000000  0.000000      3.000000
  0.500000  0.166667  0.166667      3.000000
  0.666667  0.333333  0.333333      3.000000
 -0.166667 -0.500000 -0.500000      3.000000
  0.000000 -0.333333 -0.333333      3.000000
  0.333333 -0.333333 -0.333333      3.000000
  0.500000 -0.166667 -0.166667      3.000000
  0.666667  0.000000  0.000000      3.000000
  0.833333  0.166667  0.166667      3.000000
  0.000000 -0.666667 -0.666667      3.000000
  0.166667 -0.500000 -0.500000      3.000000
  0.500000 -0.500000 -0.500000      3.000000
  0.666667 -0.333333 -0.333333      3.000000
  0.833333 -0.166667 -0.166667      3.000000
  1.000000  0.000000  0.000000      3.000000
  0.166667 -0.833333 -0.833333      3.000000
  0.333333 -0.666667 -0.666667      3.000000
 -0.333333  0.333333  0.333333      3.000000
 -0.166667  0.500000  0.500000      3.000000
  0.000000  0.666667  0.666667      3.000000
  0.166667  0.833333  0.833333      3.000000
 -0.666667  0.000000  0.000000      3.000000
 -0.500000  0.166667  0.166667      3.000000
 -0.166667  0.166667  0.166667      3.000000
  0.000000  0.333333  0.333333      3.000000
  0.166667  0.500000  0.500000      3.000000
  0.333333  0.666667  0.666667      3.000000
 -0.500000 -0.166667 -0.166667      3.000000
 -0.333333  0.000000  0.000000      3.000000
  0.166667 -0.166667 -0.500000      3.000000
  0.333333  0.000000 -0.333333      3.000000
  0.500000  0.166667 -0.166667      3.000000
  0.666667  0.333333  0.000000      3.000000
 -0.166667 -0.500000 -0.833333      3.000000
 -0.000000 -0.333333 -0.666667      3.000000
  0.333333 -0.333333 -0.666667      3.000000
  0.500000 -0.166667 -0.500000      3.000000
  0.666667 -0.000000 -0.333333      3.000000
  0.833333  0.166667 -0.166667      3.000000
  0.000000 -0.666667 -1.000000      3.000000
  0.166667 -0.500000 -0.833333      3.000000
 -0.500000  0.500000  0.166667      3.000000
 -0.333333  0.666667  0.333333      3.000000
 -0.166667  0.833333  0.500000      3.000000
  0.000000  1.000000  0.666667      3.000000
 -0.833333  0.166667 -0.166667      3.000000
 -0.666667  0.333333  0.000000      3.000000
 -0.166667  0.166667 -0.500000      3.000000
  0.000000  0.333333 -0.333333      3.000000
  0.166667  0.500000 -0.166667      3.000000
  0.333333  0.666667  0.000000      3.000000
 -0.500000 -0.166667 -0.833333      3.000000
 -0.333333 -0.000000 -0.666667      3.000000
 -0.666667  0.666667  0.000000      3.000000
 -0.500000  0.833333  0.166667      3.000000
 -0.333333  0.333333 -0.666667      3.000000
 -0.166667  0.500000 -0.500000      3.000000
  0.000000  0.666667 -0.333333      3.000000
  0.166667  0.833333 -0.166667      3.000000
 -0.666667  0.000000 -1.000000      3.000000
 -0.500000  0.166667 -0.833333      3.000000
 -0.166667  0.166667 -0.833333      3.000000
  0.000000  0.333333 -0.666667      3.000000
  0.166667  0.500000 -0.500000      3.000000
  0.333333  0.666667 -0.333333      3.000000
 -0.500000 -0.166667 -1.166667      3.000000
 -0.333333 -0.000000 -1.000000      3.000000
  0.666667 -0.666667  0.000000      3.000000
  0.833333 -0.500000  0.166667      3.000000

 I would recommend the setting:
   dimension x,y,z NGX =    33 NGY =   33 NGZ =   33
 SYSTEM =  Name
 POSCAR =  CdTe (ICSD, 295K, Rabadanov 2001)

 Startparameter for this run:
   NWRITE =      2    write-flag & timer
   PREC   = accura    normal or accurate (medium, high low for compatibility)
   ISTART =      0    job   : 0-new  1-cont  2-samecut
   ICHARG =      2    charge: 1-file 2-atom 10-const
   ISPIN  =      1    spin polarized calculation?
   LNONCOLLINEAR =      T non collinear calculations
   LSORBIT =      T    spin-orbit coupling
   INIWAV =      1    electr: 0-lowe 1-rand  2-diag
   LASPH  =      F    aspherical Exc in radial PAW
   METAGGA=      F    non-selfconsistent MetaGGA calc.

 Electronic Relaxation 1
   ENCUT  =  500.0 eV  36.75 Ry    6.06 a.u.   8.36  8.36  8.36*2*pi/ulx,y,z
   ENINI  =  500.0     initial cutoff
   ENAUG  =  456.1 eV  augmentation charge cutoff
   NELM   =     60;   NELMIN=  2; NELMDL=  0     # of ELM steps
[...]
 k-point 12 :  -0.1667 0.1667 0.0000  plane waves:    3470
 k-point 13 :   0.0000 0.3333 0.0000  plane waves:    3460
 k-point 14 :   0.1667 0.3333 0.0000  plane waves:    3458
 k-point 15 :   0.3333 0.3333 0.0000  plane waves:    3456
 k-point 16 :   0.5000 0.3333 0.0000  plane waves:    3446
 k-point 17 :  -0.3333 0.3333 0.0000  plane waves:    3452
 k-point 18 :  -0.1667 0.3333 0.0000  plane waves:    3464
 k-point 19 :   0.0000 0.5000 0.0000  plane waves:    3436
 k-point 20 :   0.1667 0.5000 0.0000  plane waves:    3478
 k-point 21 :   0.3333 0.5000 0.0000  plane waves:    3446
 k-point 22 :   0.5000 0.5000 0.0000  plane waves:    3448
 k-point 23 :  -0.3333 0.5000 0.0000  plane waves:    3446
 k-point 24 :  -0.1667 0.5000 0.0000  plane waves:    3478
 k-point 25 :   0.0000-0.3333 0.0000  plane waves:    3460
 k-point 26 :   0.1667-0.3333 0.0000  plane waves:    3464
 k-point 27 :   0.3333-0.3333 0.0000  plane waves:    3452
 k-point 28 :   0.5000-0.3333 0.0000  plane waves:    3446
 k-point 29 :  -0.3333-0.3333 0.0000  plane waves:    3456
 k-point 30 :  -0.1667-0.3333 0.0000  plane waves:    3458
 k-point 31 :   0.0000-0.1667 0.0000  plane waves:    3494
 k-point 32 :   0.1667-0.1667 0.0000  plane waves:    3470
 k-point 33 :   0.3333-0.1667 0.0000  plane waves:    3464
 k-point 34 :   0.5000-0.1667 0.0000  plane waves:    3478
 k-point 35 :  -0.3333-0.1667 0.0000  plane waves:    3458
 k-point 36 :  -0.1667-0.1667 0.0000  plane waves:    3472
 k-point 37 :   0.0000 0.3333 0.1667  plane waves:    3458
 k-point 38 :   0.1667 0.3333 0.1667  plane waves:    3470
 k-point 39 :   0.3333 0.3333 0.1667  plane waves:    3458
 k-point 40 :   0.5000 0.3333 0.1667  plane waves:    3448
 k-point 41 :  -0.3333 0.3333 0.1667  plane waves:    3452
 k-point 42 :  -0.1667 0.3333 0.1667  plane waves:    3448
 k-point 43 :   0.0000 0.5000 0.1667  plane waves:    3478
 k-point 44 :   0.1667 0.5000 0.1667  plane waves:    3464
 k-point 45 :   0.3333 0.5000 0.1667  plane waves:    3448
 k-point 46 :   0.5000 0.5000 0.1667  plane waves:    3446
 k-point 47 :  -0.3333 0.5000 0.1667  plane waves:    3444
 k-point 48 :  -0.1667 0.5000 0.1667  plane waves:    3452
 k-point 49 :   0.0000-0.3333 0.1667  plane waves:    3464
 k-point 50 :   0.1667-0.3333 0.1667  plane waves:    3478
 k-point 51 :   0.3333-0.3333 0.1667  plane waves:    3452
 k-point 52 :   0.5000-0.3333 0.1667  plane waves:    3444
 k-point 53 :  -0.3333-0.3333 0.1667  plane waves:    3446
 k-point 54 :  -0.1667-0.3333 0.1667  plane waves:    3448
 k-point 55 :   0.0000 0.1667 0.3333  plane waves:    3458
 k-point 56 :   0.1667 0.1667 0.3333  plane waves:    3470
 k-point 57 :   0.3333 0.1667 0.3333  plane waves:    3458
 k-point 58 :   0.5000 0.1667 0.3333  plane waves:    3448
 k-point 59 :  -0.3333 0.1667 0.3333  plane waves:    3452
 k-point 60 :  -0.1667 0.1667 0.3333  plane waves:    3448
 k-point 61 :   0.0000-0.3333 0.3333  plane waves:    3452
 k-point 62 :   0.1667-0.3333 0.3333  plane waves:    3452
 k-point 63 :   0.0000 0.1667 0.5000  plane waves:    3478
 k-point 64 :   0.1667 0.1667 0.5000  plane waves:    3464
 k-point 65 :   0.3333 0.1667 0.5000  plane waves:    3448
 k-point 66 :   0.5000 0.1667 0.5000  plane waves:    3446
 k-point 67 :  -0.3333 0.1667 0.5000  plane waves:    3444
 k-point 68 :  -0.1667 0.1667 0.5000  plane waves:    3452
 k-point 69 :   0.0000 0.3333 0.5000  plane waves:    3446
 k-point 70 :   0.1667 0.3333 0.5000  plane waves:    3448
 k-point 71 :   0.3333 0.3333 0.5000  plane waves:    3464
 k-point 72 :   0.5000 0.3333 0.5000  plane waves:    3478
 k-point 73 :  -0.3333 0.3333 0.5000  plane waves:    3452
 k-point 74 :  -0.1667 0.3333 0.5000  plane waves:    3444
 k-point 75 :   0.0000 0.3333-0.3333  plane waves:    3452
 k-point 76 :   0.1667 0.3333-0.3333  plane waves:    3452

 maximum and minimum number of plane-waves per node :       174      116

 maximum number of plane-waves:      3518
 maximum index in each direction:
   IXMAX=    8   IYMAX=    8   IZMAX=    8
   IXMIN=   -8   IYMIN=   -8   IZMIN=   -8

 NGX is ok and might be reduce to  34
 NGY is ok and might be reduce to  34
 NGZ is ok and might be reduce to  34

 parallel 3D FFT for wavefunctions:
    minimum data exchange during FFTs selected (reduces bandwidth)
 parallel 3D FFT for charge:
    minimum data exchange during FFTs selected (reduces bandwidth)

 Broyden mixing: mesh for mixing (old mesh)
   NGX = 17   NGY = 17   NGZ = 17
  (NGX  = 72   NGY  = 72   NGZ  = 72)
  gives a total of   4913 points

 initial charge density was supplied:
 charge density of overlapping atoms calculated
 number of electron      18.0000000 magnetization       2.0000000      2.0000000      2.0000000
 keeping initial charge density in first step

 Maximum index for augmentation-charges         1676 (set IRDMAX)

 First call to EWALD:  gamma=   0.434
 Maximum number of real-space cells 3x 3x 3
 Maximum number of reciprocal cells 3x 3x 3

 FEWALD executed in parallel

----------------------------------------- Iteration    1(   1)  ---------------------------------------

 eigenvalue-minimisations  :  4288
 total energy-change (2. order) : 0.1087802E+03  (-0.7913308E+03)
 number of electron      18.0000000 magnetization       2.0000000      2.0000000      2.0000000
 augmentation part       18.0000000 magnetization       2.0000000      2.0000000      2.0000000

 Free energy of the ion-electron system (eV)
  alpha Z        PSCENC =        50.17222034
  Ewald energy   TEWEN  =     -1044.83138452
  -Hartree energ DENC   =      -510.12304479
  -exchange      EXHF   =         0.00000000
  -V(xc)+E(xc)   XCENC  =       -20.16598554
  PAW double counting   =      1401.99867920    -1331.12288344
  entropy T*S    EENTRO =        -0.00005865
  eigenvalues    EBANDS =        46.64726526
  atomic energy  EATOM  =      1516.20541573
  Solvation  Ediel_sol  =         0.00000000
  free energy    TOTEN  =       108.78022359 eV

  energy without entropy =      108.78028224  energy(sigma->0) =      108.78025292

[...]

 eigenvalue-minimisations  :  4624
 total energy-change (2. order) :-0.1085110E+03  (-0.1044913E+03)
 number of electron      18.0000000 magnetization       2.0000000      2.0000000      2.0000000
 augmentation part       18.0000000 magnetization       2.0000000      2.0000000      2.0000000

[...]

 total charge

# of ion     s       p       d       tot
  1        0.425   0.286   9.489  10.200
  2        1.375   2.179   0.023   3.577
tot        1.800   2.465   9.512  13.777

 magnetization (x)

[...]

 magnetization (y)

[...]

 magnetization (z)

[...]

 Broyden mixing:
  rms(total) = 0.11096E+01    rms(broyden)= 0.11096E+01
  rms(prec ) = 0.12874E+01
  weight for this iteration     100.00

[...]

 eigenvalues of (default mixing * dielectric matrix)
  average eigenvalue GAMMA=   0.7551
  0.7551

[...]

 eigenvalue-minimisations  :  4520
 total energy-change (2. order) : 0.1004803E-02  (-0.2913613E-03)
 number of electron      17.9999996 magnetization      -0.0039747     -0.0039747     -0.0039747
 augmentation part        4.5589958 magnetization      -0.0046295     -0.0046295     -0.0046295

[...]

 Broyden mixing:
  rms(total) = 0.52382E-03    rms(broyden)= 0.52382E-03
  rms(prec ) = 0.77579E-03
  weight for this iteration     100.00

 eigenvalues of (default mixing * dielectric matrix)
  average eigenvalue GAMMA=   1.2565
  2.4016  2.4016  1.9101  0.9289  0.9289  0.8025  0.6146  0.6146  0.7057

[...]

----------------------------------------- Iteration    1(  15)  ---------------------------------------

[...]

 eigenvalue-minimisations  :  3868
 total energy-change (2. order) :-0.8654936E-06  (-0.6923683E-07)
 number of electron      17.9999996 magnetization       0.0000956      0.0000956      0.0000956
 augmentation part        4.5574866 magnetization       0.0000944      0.0000944      0.0000944

 Free energy of the ion-electron system (eV)
  alpha Z        PSCENC =        50.17222034
  Ewald energy   TEWEN  =     -1044.83138452
  -Hartree energ DENC   =      -502.28816718
  -exchange      EXHF   =         0.00000000
  -V(xc)+E(xc)   XCENC  =       -20.68860157
  PAW double counting   =      1768.49002879    -1697.30398290
  entropy T*S    EENTRO =        -0.00000000
  eigenvalues    EBANDS =       -75.36672236
  atomic energy  EATOM  =      1516.20541573
  Solvation  Ediel_sol  =         0.00000000
  free energy    TOTEN  =        -5.61119366 eV

  energy without entropy =       -5.61119366  energy(sigma->0) =       -5.61119366

 average (electrostatic) potential at core
  the test charge radii are     1.0698  1.1897
  (the norm of the test charge is              1.0000)
       1 -38.9770       2 -91.2273

 E-fermi :   2.5485     XC(G=0):  -8.7764     alpha+bet : -7.4227

 k-point     1 :       0.0000    0.0000    0.0000
  band No.  band energies     occupation
      1      -8.9927      1.00000
      2      -8.9926      1.00000
      3      -6.3600      1.00000
      4      -6.3600      1.00000
      5      -6.3600      1.00000
      6      -6.3600      1.00000
      7      -5.8172      1.00000
      8      -5.8172      1.00000
      9      -5.6008      1.00000
     10      -5.6008      1.00000
     11      -5.6007      1.00000
     12      -5.6007      1.00000
     13       1.6423      1.00000
     14       1.6424      1.00000
     15       2.4820      1.00000
     16       2.4821      1.00000
     17       2.4821      1.00000
     18       2.4821      1.00000
     19       2.8678      0.00000
     20       2.8679      0.00000
     21       6.5217      0.00000
     22       6.5217      0.00000
     23       6.8568      0.00000
     24       6.8568      0.00000
     25       6.8568      0.00000
     26       6.8568      0.00000
     27       9.5014      0.00000
     28       9.5015      0.00000

[...]

 k-point    76 :       0.1667    0.3333   -0.3333
  band No.  band energies     occupation
      1      -8.5115      1.00000
      2      -8.4890      1.00000
      3      -6.2991      1.00000
      4      -6.2803      1.00000
      5      -6.2152      1.00000
      6      -5.9647      1.00000
      7      -5.6747      1.00000
      8      -5.6566      1.00000
      9      -5.5595      1.00000
     10      -5.5471      1.00000
     11      -5.2342      1.00000
     12      -5.0977      1.00000
     13      -2.1308      1.00000
     14      -1.9182      1.00000
     15      -0.3995      1.00000
     16      -0.0994      1.00000
     17       0.5477      1.00000
     18       0.6660      1.00000
     19       5.7281      0.00000
     20       5.9549      0.00000
     21       6.7080      0.00000
     22       6.7771      0.00000
     23       7.8281      0.00000
     24       7.9572      0.00000
     25       9.3300      0.00000
     26       9.4645      0.00000
     27       9.9937      0.00000
     28      10.2039      0.00000

 soft charge-density along one line, spin component           1
         0         1         2         3         4         5         6         7         8         9
 total charge-density along one line

[...]

 soft charge-density along one line, spin component           4
         0         1         2         3         4         5         6         7         8         9
 total charge-density along one line

------------------------ aborting loop because EDIFF is reached ----------------------------------------

[...]

  FORCE on cell =-STRESS in cart. coord.  units (eV):
  Direction    XX          YY          ZZ          XY          YZ          ZX
  Alpha Z    50.17222    50.17222    50.17222
  Ewald    -348.27726  -348.27726  -348.27726     0.00000     0.00000     0.00000
  Hartree   167.43037   167.43037   167.43037    -0.00000    -0.00000    -0.00000
  E(xc)     -86.29873   -86.29873   -86.29873    -0.00000     0.00000     0.00000
  Local     -17.88429   -17.88429   -17.88429     0.00001    -0.00001    -0.00001
  n-local    24.35597    26.80731    26.32238     0.58498    -1.26145     0.67647
  augment     6.24059     6.24059     6.24059    -0.00001     0.00001     0.00001
  Kinetic   201.59768   203.71512   203.50452     0.73196    -1.38489     0.65294
  Fock        0.00000     0.00000     0.00000     0.00000     0.00000     0.00000
  Total       0.15057     0.15057     0.15057     0.00000     0.00000     0.00000
  in kB       3.54189     3.54189     3.54189     0.00002     0.00002     0.00002

 VOLUME and BASIS-vectors are now :
  energy-cutoff  :      500.00
  volume of cell :       68.11
      direct lattice vectors                 reciprocal lattice vectors
     3.241350000  3.241350000  0.000000000     0.154256714  0.154256714  0.154256714
     3.241350000  0.000000000 -3.241350000     0.154256714 -0.154256714 -0.154256714
     0.000000000  3.241350000 -3.241350000    -0.154256714  0.154256714 -0.154256714

  length of vectors
     4.583961130  4.583961130  4.583961130     0.267180466  0.267180466  0.267180466

 FORCES acting on ions
    electron-ion (+dipol)            ewald-force                    non-local-force                 convergence-correction
   0.149E-05 0.149E-05 0.214E-05   -.744E-14 -.454E-14 0.998E-14   -.324E-05 -.324E-05 -.324E-05   0.134E-07 0.134E-07 0.189E-07
   -.155E-05 -.155E-05 -.190E-05   0.759E-14 0.606E-14 -.102E-13   0.136E-05 0.136E-05 0.136E-05   0.108E-05 0.108E-05 0.108E-05
   -.553E-07 -.553E-07 0.238E-06   0.152E-15 0.152E-14 -.238E-15   -.187E-05 -.187E-05 -.187E-05   0.109E-05 0.109E-05 0.110E-05

 POSITION                                       TOTAL-FORCE (eV/Angst)
      0.00000      0.00000      0.00000        -0.000001     -0.000001     -0.000001
      1.62068      1.62068     -1.62068         0.000001      0.000001      0.000001
    total drift:                               -0.000001     -0.000001     -0.000001

  FREE ENERGIE OF THE ION-ELECTRON SYSTEM (eV)
  free  energy   TOTEN  =        -5.61119366 eV

  energy  without entropy=       -5.61119366  energy(sigma->0) =       -5.61119366

 writing wavefunctions

 Spin-Orbit-Coupling matrix elements

 Ion:    1  E_soc:     -0.0615386
 l=   1
     0.0000000    -0.0032494    -0.0032494
    -0.0032494     0.0000000    -0.0032494
    -0.0032494    -0.0032494     0.0000000
 l=   2
     0.0000000    -0.0014076     0.0000000    -0.0014076    -0.0055994
    -0.0014076     0.0000000    -0.0041996    -0.0014076    -0.0013999
     0.0000000    -0.0041996     0.0000000    -0.0041996     0.0000000
    -0.0014076    -0.0014076    -0.0041996     0.0000000    -0.0013999
    -0.0055994    -0.0013999     0.0000000    -0.0013999     0.0000000
 l=   3
     0.0000000     0.0000000     0.0000000     0.0000000     0.0000000     0.0000000     0.0000000
     0.0000000     0.0000000     0.0000000     0.0000000     0.0000000     0.0000000     0.0000000
     0.0000000     0.0000000     0.0000000     0.0000000     0.0000000     0.0000000     0.0000000
     0.0000000     0.0000000     0.0000000     0.0000000     0.0000000     0.0000000     0.0000000
     0.0000000     0.0000000     0.0000000     0.0000000     0.0000000     0.0000000     0.0000000
     0.0000000     0.0000000     0.0000000     0.0000000     0.0000000     0.0000000     0.0000000
     0.0000000     0.0000000     0.0000000     0.0000000     0.0000000     0.0000000     0.0000000

 Ion:    2  E_soc:     -0.1985352
 l=   1
     0.0000000    -0.0330138    -0.0330138
    -0.0330138     0.0000000    -0.0330138
    -0.0330138    -0.0330138     0.0000000
 l=   2
     0.0000000    -0.0000304     0.0000000    -0.0000304    -0.0000450
    -0.0000304     0.0000000    -0.0000338    -0.0000304    -0.0000113
     0.0000000    -0.0000338     0.0000000    -0.0000338     0.0000000
    -0.0000304    -0.0000304    -0.0000338     0.0000000    -0.0000113
    -0.0000450    -0.0000113     0.0000000    -0.0000113     0.0000000
 l=   3
     0.0000000     0.0000000     0.0000000     0.0000000     0.0000000     0.0000000     0.0000000
     0.0000000     0.0000000     0.0000000     0.0000000     0.0000000     0.0000000     0.0000000
     0.0000000     0.0000000     0.0000000     0.0000000     0.0000000     0.0000000     0.0000000
     0.0000000     0.0000000     0.0000000     0.0000000     0.0000000     0.0000000     0.0000000
     0.0000000     0.0000000     0.0000000     0.0000000     0.0000000     0.0000000     0.0000000
     0.0000000     0.0000000     0.0000000     0.0000000     0.0000000     0.0000000     0.0000000
     0.0000000     0.0000000     0.0000000     0.0000000     0.0000000     0.0000000     0.0000000

 total charge

[...]

 magnetization (x)

[...]

 magnetization (y)

[...]

 magnetization (z)

# of ion     s       p       d       tot
  1       -0.000   0.000  -0.000  -0.000
  2        0.000  -0.000  -0.000  -0.000
tot       -0.000   0.000  -0.000  -0.000