 vasp.5.4.1 24Jun15 (build Nov 25 2015 16:01:35) complex

 executed on         CrayXC-Intel date 2016.06.07  15:41:23

 INCAR:
 POTCAR:   PAW C 31May2000
 POTCAR:   PAW N 31May2000
 POTCAR:   PAW H 06May1998
 POTCAR:   PAW Pb_d 30Apr1998
 POTCAR:   PAW I 03Oct2001

 POTCAR:   PAW C 31May2000
   VRHFIN =C: s2p2

   TITEL  = PAW C 31May2000
   POMASS =   12.011; ZVAL   =    4.000    mass and valenz
   ENMAX  =  400.000; ENMIN  =  300.000 eV
   QCUT   =   -5.516; QGAM   =   11.032    optimization parameters

   Description
     l     E      TYP  RCUT    TYP  RCUT
     0   .000     23  1.200
     0   .000     23  1.200
     1   .000     23  1.500
     1  2.500     23  1.500
     2   .000      7  1.500

 POTCAR:   PAW N 31May2000
   VRHFIN =N: s2p3

[...]

 POTCAR:   PAW H 06May1998
   VRHFIN =H: ultrasoft test

   TITEL  = PAW H 06May1998
   POMASS =    1.000; ZVAL   =    1.000    mass and valenz
   ENMAX  =  250.000; ENMIN  =  200.000 eV
   QCUT   =   -5.742; QGAM   =   11.483    optimization parameters

[...]

 POTCAR:   PAW Pb_d 30Apr1998
   VRHFIN =Pb:

   TITEL  = PAW Pb_d 30Apr1998
   POMASS =  207.200; ZVAL   =   14.000    mass and valenz
   ENMAX  =  237.817; ENMIN  =  178.363 eV
   QCUT   =   -4.181; QGAM   =    8.362    optimization parameters

[...]

 POTCAR:   PAW I 03Oct2001
   VRHFIN =I : s2p5

   TITEL  = PAW I 03Oct2001
   POMASS =  126.904; ZVAL   =    7.000    mass and valenz
   ENMAX  =  175.712; ENMIN  =  131.784 eV
   QCUT   =   -3.594; QGAM   =    7.187    optimization parameters

   Description
     l     E      TYP  RCUT    TYP  RCUT
     0   .000     23  2.300
     0   .000     23  2.300
     1   .000     23  2.300
     1   .000     23  2.300
     2   .000     23  2.300
     3  -.100     23  2.300

 PAW C 31May2000                        :
 PAW N 31May2000                        :
 PAW H 06May1998                        :
 PAW Pb_d 30Apr1998                     :
 PAW I 03Oct2001                        :

 POSCAR: MA-Pb-I (Github)
  positions in direct lattice
  velocities in cartesian coordinates
 exchange correlation table for  LEXCH =        2
   RHO(1)=    0.500       N(1)  =     2000
   RHO(2)=  100.500       N(2)  =     4000

 ion  position               nearest neighbor table
   1  0.903  1.000  0.996-   3 1.10   5 1.10   4 1.10   2 1.48
   2  0.137  1.000  0.025-   6 1.04   7 1.04   8 1.05   1 1.48
   3  0.865  1.000  0.826-   1 1.10
   4  0.838  0.144  0.072-   1 1.10
   5  0.838  0.857  0.072-   1 1.10
   6  0.208  0.134  0.958-   2 1.04
   7  0.207  0.865  0.958-   2 1.04
   8  0.182  0.000  0.185-   2 1.05
   9  0.476  0.500  0.476-  12 3.07  10 3.15  11 3.15  11 3.15  10 3.18  12 3.23
  10  0.427  0.500  0.973-   9 3.15   9 3.18
  11  0.436  0.000  0.507-   9 3.15   9 3.15
  12  0.963  0.500  0.448-   9 3.07   9 3.23

  LATTYP: Found a simple monoclinic cell.
 ALAT       =     6.2901201248
 B/A-ratio  =     0.9974197462
 C/A-ratio  =     1.4105278383
 COS(beta)  =    -0.7044835581

  Lattice vectors:

 A1 = (  -6.2901201248,   0.0000000000,   0.0000000000)
 A2 = (  -0.0000776940,  -6.2738900180,   0.0000000000)
 A3 = (   6.2504525538,  -0.0001537931,   6.2969150416)

Analysis of symmetry for initial positions (statically):
 Subroutine PRICEL returns:
 Original cell was already a primitive cell.

 Routine SETGRP: Setting up the symmetry group for a
 simple monoclinic supercell.

 Subroutine GETGRP returns: Found  1 space group operations
 (whereof  1 operations were pure point group operations)
 out of a pool of  4 trial point group operations.

The static configuration has the point symmetry C_1 .

Analysis of symmetry for dynamics (positions and initial velocities):
 Subroutine PRICEL returns:
 Original cell was already a primitive cell.

 Routine SETGRP: Setting up the symmetry group for a
 simple monoclinic supercell.

 Subroutine GETGRP returns: Found  1 space group operations
 (whereof  1 operations were pure point group operations)
 out of a pool of  4 trial point group operations.

The dynamic configuration has the point symmetry C_1 .

 Subroutine INISYM returns: Found  1 space group operations
 (whereof  1 operations are pure point group operations),
 and found     1 'primitive' translations

 KPOINTS: Automatically generated mesh SCF: 112, k
  k-points in reciprocal lattice
Space group operators:
 irot       det(A)        alpha          n_x          n_y          n_z        tau_x        tau_y        tau_z
    1     1.000000     0.000000     1.000000     0.000000     0.000000     0.000000     0.000000     0.000000

 I would recommend the setting:
   dimension x,y,z NGX =    46 NGY =   46 NGZ =   46
 SYSTEM =  Name
 POSCAR =  MA-Pb-I (Github)

 Startparameter for this run:
   NWRITE =      2    write-flag & timer
   PREC   = accura    normal or accurate (medium, high low for compatibility)
   ISTART =      0    job   : 0-new  1-cont  2-samecut
   ICHARG =     11    charge: 1-file 2-atom 10-const
   ISPIN  =      1    spin polarized calculation?
   LNONCOLLINEAR =      F non collinear calculations
   LSORBIT =      F    spin-orbit coupling
   INIWAV =      1    electr: 0-lowe 1-rand  2-diag
   LASPH  =      F    aspherical Exc in radial PAW
   METAGGA=      F    non-selfconsistent MetaGGA calc.

 Electronic Relaxation 1
   ENCUT  =  500.0 eV  36.75 Ry    6.06 a.u.  11.47 11.44 11.48*2*pi/ulx,y,z
   ENINI  =  500.0     initial cutoff
   ENAUG  =  644.9 eV  augmentation charge cutoff
   NELM   =     60;   NELMIN=  2; NELMDL=  0     # of ELM steps
   EDIFF  = 0.1E-05   stopping-criterion for ELM
   LREAL  =      F    real-space projection
   NLSPLINE    = F    spline interpolate recip. space projectors
   LCOMPAT=      F    compatible to vasp.4.4
   GGA_COMPAT  = T    GGA compatible to vasp.4.4-vasp.4.6
   LMAXPAW     = -100 max onsite density
   LMAXMIX     =    2 max onsite mixed and CHGCAR
   VOSKOWN=      0    Vosko Wilk Nusair interpolation
   ROPT   =    0.00000   0.00000   0.00000   0.00000
   ROPT   =    0.00000
 Ionic relaxation
   EDIFFG = -.5E-02   stopping-criterion for IOM
   NSW    =      0    number of steps for IOM
   NBLOCK =      1;   KBLOCK =      1    inner block; outer block
   IBRION =     -1    ionic relax: 0-MD 1-quasi-New 2-CG
   NFREE  =      1    steps in history (QN), initial steepest desc. (CG)
   ISIF   =      3    stress and relaxation
   IWAVPR =     10    prediction:  0-non 1-charg 2-wave 3-comb
   ISYM   =      2    0-nonsym 1-usesym 2-fastsym
   LCORR  =      T    Harris-Foulkes like correction to forces

   POTIM  = 0.5000    time-step for ionic-motion
   TEIN   =    0.0    initial temperature
   TEBEG  =    0.0;   TEEND  =   0.0 temperature during run
   SMASS  =  -3.00    Nose mass-parameter (am)
   estimated Nose-frequenzy (Omega)   =  0.10E-29 period in steps =****** mass=  -0.904E-27a.u.
   SCALEE = 1.0000    scale energy and forces
   NPACO  =    256;   APACO  = 16.0  distance and # of slots for P.C.
   PSTRESS=    0.0 pullay stress

  Mass of Ions in am
   POMASS =  12.01 14.00  1.00207.20126.90
  Ionic Valenz
   ZVAL   =   4.00  5.00  1.00 14.00  7.00
  Atomic Wigner-Seitz radii
  virtual crystal weights
   VCA    =   1.00  1.00  1.00  1.00  1.00
   NELECT =      50.0000    total number of electrons
   NUPDOWN=      -1.0000    fix difference up-down

 DOS related values:
   EMIN   =  10.00;   EMAX   =-10.00  energy-range for DOS
   EFERMI =   0.00
   ISMEAR =     0;   SIGMA  =   0.01  broadening in eV -4-tet -1-fermi 0-gaus

 Electronic relaxation 2 (details)
   IALGO  =     38    algorithm
   LDIAG  =      T    sub-space diagonalisation (order eigenvalues)
   LSUBROT=      F    optimize rotation matrix (better conditioning)
   TURBO    =      0    0=normal 1=particle mesh
   IRESTART =      0    0=no restart 2=restart with 2 vectors
   NREBOOT  =      0    no. of reboots
   NMIN     =      0    reboot dimension
   EREF     =   0.00    reference energy to select bands
   IMIX   =      4    mixing-type and parameters
     AMIX     =   0.40;   BMIX     =  1.00
     AMIX_MAG =   1.60;   BMIX_MAG =  1.00
     AMIN     =   0.01
     WC   =   100.;   INIMIX=   1;  MIXPRE=   1;  MAXMIX= -45

 Intra band minimization:
   WEIMIN = 0.0000     energy-eigenvalue tresh-hold
   EBREAK =  0.48E-08  absolut break condition
   DEPER  =   0.30     relativ break condition

   TIME   =   0.40     timestep for ELM

  volume/ion in A,a.u.               =      20.71       139.75
  Fermi-wavevector in a.u.,A,eV,Ry     =   0.959306  1.812825 12.520994  0.920267
  Thomas-Fermi vector in A             =   2.088490

 Write flags
   LWAVE  =      T    write WAVECAR
   LCHARG =      T    write CHGCAR
   LVTOT  =      F    write LOCPOT, total local potential
   LVHAR  =      F    write LOCPOT, Hartree potential only
   LELF   =      F    write electronic localiz. function (ELF)
   LORBIT =     10    0 simple, 1 ext, 2 COOP (PROOUT)

 Dipole corrections
   LMONO  =      F    monopole corrections only (constant potential shift)
   LDIPOL =      F    correct potential (dipole corrections)
   IDIPOL =      0    1-x, 2-y, 3-z, 4-all directions
   EPSILON=  1.0000000 bulk dielectric constant

 Core level calculations are selected ICORELEVEL =  1
 Exchange correlation treatment:
   GGA     =    --    GGA type
   VOSKOWN=      0    Vosko Wilk Nusair interpolation
   LHFCALC =     F    Hartree Fock is set to
   LHFONE  =     F    Hartree Fock one center treatment
   AEXX    =    0.0000 exact exchange contribution

 Linear response parameters
   LEPSILON=     F    determine dielectric tensor
   LRPA    =     F    only Hartree local field effects (RPA)
   LNABLA  =     F    use nabla operator in PAW spheres
   LVEL    =     F    velocity operator in full k-point grid
   LINTERFAST=   F  fast interpolation
   KINTER  =     0    interpolate to denser k-point grid
   CSHIFT  =0.1000    complex shift for real part using Kramers Kronig
   OMEGAMAX=  -1.0    maximum frequency
   DEG_THRESHOLD= 0.2000000E-02 threshold for treating states as degnerate
   RTIME   =    0.100 relaxation time in fs

 Orbital magnetization related:
   ORBITALMAG=     F  switch on orbital magnetization
   LCHIMAG   =     F  perturbation theory with respect to B field
   DQ        =  0.001000  dq finite difference perturbation B field

 Static calculation
 charge density and potential remain constant during run
 non-spin polarized calculation
 Variant of blocked Davidson
 Davidson routine will perform the subspace rotation
 perform sub-space diagonalisation
    after iterative eigenvector-optimisation
 no mixing
 using additional bands           27
 reciprocal scheme for non local part
 use partial core corrections
 calculate Harris-corrections to forces
   (improved forces if not selfconsistent)
 use of overlap-Matrix (Vanderbilt PP)
 Gauss-broadening in eV      SIGMA  =   0.01

  energy-cutoff  :      500.00
  volume of cell :      248.50
      direct lattice vectors                 reciprocal lattice vectors
     6.290120125  0.000000000  0.000000000     0.158979476 -0.000001969  0.001001495
     0.000077694  6.273890018  0.000000000     0.000000000  0.159390744  0.000003893
    -0.039667571 -0.000153793  6.296915042     0.000000000  0.000000000  0.158807923

[...]
 k-point ** :   0.0374 0.0374 0.0374  plane waves:    6325
 k-point ** :   0.0402 0.0402 0.0402  plane waves:    6323
 k-point ** :   0.0431 0.0431 0.0431  plane waves:    6324
 k-point ** :   0.0460 0.0460 0.0460  plane waves:    6323
 k-point ** :   0.0489 0.0489 0.0489  plane waves:    6319
 k-point ** :   0.0517 0.0517 0.0517  plane waves:    6319
 k-point ** :   0.0546 0.0546 0.0546  plane waves:    6317
 k-point ** :   0.0575 0.0575 0.0575  plane waves:    6314
 k-point ** :   0.0603 0.0603 0.0603  plane waves:    6315
 k-point ** :   0.0632 0.0632 0.0632  plane waves:    6307
 k-point ** :   0.0661 0.0661 0.0661  plane waves:    6305
 k-point ** :   0.0690 0.0690 0.0690  plane waves:    6303
 k-point ** :   0.0718 0.0718 0.0718  plane waves:    6305
 k-point ** :   0.0747 0.0747 0.0747  plane waves:    6303
 k-point ** :   0.0776 0.0776 0.0776  plane waves:    6304
 k-point ** :   0.0805 0.0805 0.0805  plane waves:    6306
 k-point ** :   0.0833 0.0833 0.0833  plane waves:    6307
 k-point ** :   0.0862 0.0862 0.0862  plane waves:    6309
 k-point ** :   0.0891 0.0891 0.0891  plane waves:    6312
 k-point ** :   0.0920 0.0920 0.0920  plane waves:    6314
 k-point ** :   0.0948 0.0948 0.0948  plane waves:    6319
 k-point ** :   0.0977 0.0977 0.0977  plane waves:    6320
 k-point ** :   0.1006 0.1006 0.1006  plane waves:    6320
 k-point ** :   0.1034 0.1034 0.1034  plane waves:    6317
 k-point ** :   0.1063 0.1063 0.1063  plane waves:    6317
 k-point ** :   0.1092 0.1092 0.1092  plane waves:    6317
 k-point ** :   0.1121 0.1121 0.1121  plane waves:    6318
 k-point ** :   0.1149 0.1149 0.1149  plane waves:    6320
 k-point ** :   0.1178 0.1178 0.1178  plane waves:    6323
 k-point ** :   0.1207 0.1207 0.1207  plane waves:    6320
 k-point ** :   0.1236 0.1236 0.1236  plane waves:    6321
 k-point ** :   0.1264 0.1264 0.1264  plane waves:    6320
 k-point ** :   0.1293 0.1293 0.1293  plane waves:    6324
 k-point ** :   0.1322 0.1322 0.1322  plane waves:    6327
[...]
 k-point ** :   0.5000 0.5000 0.4300  plane waves:    6274
 k-point ** :   0.5000 0.5000 0.4350  plane waves:    6268
 k-point ** :   0.5000 0.5000 0.4400  plane waves:    6264
 k-point ** :   0.5000 0.5000 0.4450  plane waves:    6264
 k-point ** :   0.5000 0.5000 0.4500  plane waves:    6262
 k-point ** :   0.5000 0.5000 0.4550  plane waves:    6266
 k-point ** :   0.5000 0.5000 0.4600  plane waves:    6263
 k-point ** :   0.5000 0.5000 0.4650  plane waves:    6260
 k-point ** :   0.5000 0.5000 0.4700  plane waves:    6260
 k-point ** :   0.5000 0.5000 0.4750  plane waves:    6262
 k-point ** :   0.5000 0.5000 0.4800  plane waves:    6264
 k-point ** :   0.5000 0.5000 0.4850  plane waves:    6268
 k-point ** :   0.5000 0.5000 0.4900  plane waves:    6268
 k-point ** :   0.5000 0.5000 0.4950  plane waves:    6272
 k-point ** :   0.5000 0.5000 0.5000  plane waves:    6272

 maximum and minimum number of plane-waves per node :      1077     1020

 maximum number of plane-waves:      6366
 maximum index in each direction:
   IXMAX=   11   IYMAX=   11   IZMAX=   11
   IXMIN=  -11   IYMIN=  -11   IZMIN=  -11

 NGX is ok and might be reduce to  46
 NGY is ok and might be reduce to  46
 NGZ is ok and might be reduce to  46

 parallel 3D FFT for wavefunctions:
    minimum data exchange during FFTs selected (reduces bandwidth)
 parallel 3D FFT for charge:
    minimum data exchange during FFTs selected (reduces bandwidth)

 initial charge density was supplied:
 number of electron      49.9999995 magnetization
 keeping initial charge density in first step

 Maximum index for augmentation-charges         1007 (set IRDMAX)

 First call to EWALD:  gamma=   0.282
 Maximum number of real-space cells 3x 3x 3
 Maximum number of reciprocal cells 3x 3x 3

 FEWALD executed in parallel

----------------------------------------- Iteration    1(   1)  ---------------------------------------

 eigenvalue-minimisations  : 65328
 total energy-change (2. order) : 0.3294115E+03  (-0.1864078E+04)
 number of electron      49.9999995 magnetization
 augmentation part       49.9999995 magnetization

 Free energy of the ion-electron system (eV)
  alpha Z        PSCENC =        42.82368006
  Ewald energy   TEWEN  =     -1941.32201603
  -Hartree energ DENC   =     -1049.80577597
  -exchange      EXHF   =         0.00000000
  -V(xc)+E(xc)   XCENC  =        51.78893835
  PAW double counting   =      1935.71949023    -1849.22048684
  entropy T*S    EENTRO =        -0.00015201
  eigenvalues    EBANDS =        35.46146005
  atomic energy  EATOM  =      3103.96639798
  Solvation  Ediel_sol  =         0.00000000
  free energy    TOTEN  =       329.41153583 eV

  energy without entropy =      329.41168783  energy(sigma->0) =      329.41161183

[...]

 eigenvalue-minimisations  : 72696
 total energy-change (2. order) :-0.3431142E+03  (-0.3163698E+03)
 number of electron      49.9999995 magnetization
 augmentation part       49.9999995 magnetization

[...]

----------------------------------------- Iteration    1(   8)  ---------------------------------------

 eigenvalue-minimisations  : 76640
 total energy-change (2. order) :-0.4355661E-06  (-0.4355547E-06)
 number of electron      49.9999995 magnetization
 augmentation part       49.9999995 magnetization

 Free energy of the ion-electron system (eV)
  alpha Z        PSCENC =        42.82368006
  Ewald energy   TEWEN  =     -1941.32201603
  -Hartree energ DENC   =     -1049.80577597
  -exchange      EXHF   =         0.00000000
  -V(xc)+E(xc)   XCENC  =        51.78893835
  PAW double counting   =      1935.71949023    -1849.22048684
  entropy T*S    EENTRO =        -0.00000000
  eigenvalues    EBANDS =      -348.78404319
  atomic energy  EATOM  =      3103.96639798
  Solvation  Ediel_sol  =         0.00000000
  free energy    TOTEN  =       -54.83381540 eV

  energy without entropy =      -54.83381540  energy(sigma->0) =      -54.83381540

 the core state eigenenergies are
   1-  1s   -260.9737
   2-  1s   -373.5299
   3-
   4-
   5-
   6-
   7-
   8-
   9-  1s -87449.3110  2s -15650.4016  2p -13443.9474  3s  -3754.4375  3p  -3120.7523
       3d  -2472.9780  4s   -844.4756  4p   -636.3991  4d   -395.0818  5s   -137.3997
       4f   -127.4714  5p    -79.3278
  10-  1s -32774.8526  2s  -5064.1978  2p  -4551.7755  3s  -1016.2726  3p   -849.5643
       3d   -598.2878  4s   -172.1889  4p   -119.6946  4d    -42.5098
  11-  1s -32774.7877  2s  -5064.1331  2p  -4551.7107  3s  -1016.2080  3p   -849.4997
       3d   -598.2232  4s   -172.1247  4p   -119.6304  4d    -42.4457
  12-  1s -32774.5294  2s  -5063.8712  2p  -4551.4494  3s  -1015.9408  3p   -849.2325
       3d   -597.9566  4s   -171.8486  4p   -119.3532  4d    -42.1663

 E-fermi :   1.4663     XC(G=0):  -8.0146     alpha+bet : -7.2670

 k-point     1 :       0.0000    0.0000    0.0000
  band No.  band energies     occupation
      1     -18.1546      2.00000
      2     -15.2007      2.00000
      3     -15.1772      2.00000
      4     -15.1285      2.00000
      5     -15.1112      2.00000
      6     -15.1070      2.00000
      7     -11.2622      2.00000
      8     -10.9562      2.00000
      9     -10.2526      2.00000
     10      -9.9755      2.00000
     11      -7.8298      2.00000
     12      -7.6667      2.00000
     13      -5.8666      2.00000
     14      -5.4798      2.00000
     15      -3.5374      2.00000
     16      -3.5218      2.00000
     17      -2.2362      2.00000
     18      -2.2357      2.00000
     19      -2.0833      2.00000
     20      -0.1090      2.00000
     21      -0.0749      2.00000
     22       0.0030      2.00000
     23       0.1319      2.00000
     24       0.4019      2.00000
     25       0.4133      2.00000
     26       4.7396      0.00000
     27       5.7855      0.00000
     28       5.9235      0.00000
     29       6.1012      0.00000
     30       6.2325      0.00000
     31       6.3492      0.00000
     32       7.0393      0.00000
     33       7.4562      0.00000
     34       7.6421      0.00000
     35       8.2344      0.00000
     36       8.6583      0.00000
     37       8.8522      0.00000
     38       9.1770      0.00000
     39       9.6544      0.00000
     40       9.9004      0.00000
     41       9.9838      0.00000
     42      10.2593      0.00000
     43      10.3451      0.00000
     44      11.5440      0.00000
     45      11.6311      0.00000
     46      11.7125      0.00000
     47      12.1431      0.00000
     48      12.3920      0.00000
     49      12.7252      0.00000
     50      12.8343      0.00000
     51      12.8461      0.00000
     52      13.5771      0.00000

[...]

 k-point   628 :       0.5000    0.5000    0.5000
  band No.  band energies     occupation
      1     -18.1513      2.00000
      2     -15.1797      2.00000
      3     -15.1573      2.00000
      4     -15.1298      2.00000
      5     -15.1127      2.00000
      6     -15.1084      2.00000
      7     -11.2571      2.00000
      8     -10.5661      2.00000
      9     -10.4918      2.00000
     10     -10.1517      2.00000
     11      -7.7521      2.00000
     12      -7.6347      2.00000
     13      -7.1996      2.00000
     14      -5.8295      2.00000
     15      -3.5370      2.00000
     16      -3.5232      2.00000
     17      -1.1539      2.00000
     18      -0.7503      2.00000
     19      -0.7100      2.00000
     20      -0.0447      2.00000
     21       0.0138      2.00000
     22       0.3382      2.00000
     23       0.7486      2.00000
     24       0.7521      2.00000
     25       1.3573      2.00000
     26       2.7986      0.00000
     27       2.8055      0.00000
     28       3.0267      0.00000
     29       5.4166      0.00000
     30       6.9514      0.00000
     31       7.3503      0.00000
     32       7.5866      0.00000
     33       7.7274      0.00000
     34       8.0730      0.00000
     35       8.2809      0.00000
     36       8.4538      0.00000
     37       8.8099      0.00000
     38       8.9650      0.00000
     39       9.0629      0.00000
     40       9.4969      0.00000
     41       9.8293      0.00000
     42      10.2474      0.00000
     43      10.5672      0.00000
     44      10.8324      0.00000
     45      11.1574      0.00000
     46      11.8695      0.00000
     47      12.0415      0.00000
     48      12.2299      0.00000
     49      12.2781      0.00000
     50      12.9752      0.00000
     51      13.1310      0.00000
     52      13.2576      0.00000

 soft charge-density along one line, spin component           1
         0         1         2         3         4         5         6         7         8         9
 total charge-density along one line

------------------------ aborting loop because EDIFF is reached ----------------------------------------

 total charge

# of ion     s       p       d       tot
  1        0.832   1.782   0.000   2.614
  2        1.212   2.768   0.000   3.979
  3        0.619   0.046   0.000   0.665
  4        0.618   0.046   0.000   0.665
  5        0.618   0.046   0.000   0.665
  6        0.587   0.079   0.000   0.666
  7        0.587   0.079   0.000   0.666
  8        0.583   0.079   0.000   0.662
  9        1.477   0.536   9.836  11.849
 10        1.512   2.792   0.009   4.313
 11        1.512   2.792   0.009   4.314
 12        1.513   2.781   0.008   4.302
tot       11.670  13.828   9.862  35.360

  FORCE on cell =-STRESS in cart. coord.  units (eV):
  Direction    XX          YY          ZZ          XY          YZ          ZX
  Alpha Z    42.82368    42.82368    42.82368
  Ewald    -631.85511  -642.25523  -667.21442    -0.07437    -0.09326    21.50540
  Hartree   353.50523   355.88578   340.41861    -0.04947    -0.05746    12.74349
  E(xc)    -197.10639  -197.11379  -197.10897     0.00002    -0.00002    -0.00606
  Local    -625.84590  -614.48448  -575.38117     0.12582     0.14503   -33.84316
  n-local   462.12447   459.13251   459.04294    -0.00167     0.00002     0.35300
  augment    11.57398    11.62223    11.51618    -0.00011     0.00006     0.01723
  Kinetic   583.16992   583.16350   584.93879     0.00098     0.00428    -0.84395
  Fock        0.00000     0.00000     0.00000     0.00000     0.00000     0.00000
  Total      -1.61014    -1.22579    -0.96436     0.00120    -0.00135    -0.07405
  in kB     -10.38126    -7.90322    -6.21762     0.00773    -0.00873    -0.47742

 VOLUME and BASIS-vectors are now :
  energy-cutoff  :      500.00
  volume of cell :      248.50
      direct lattice vectors                 reciprocal lattice vectors
     6.290120125  0.000000000  0.000000000     0.158979476 -0.000001969  0.001001495
     0.000077694  6.273890018  0.000000000     0.000000000  0.159390744  0.000003893
    -0.039667571 -0.000153793  6.296915042     0.000000000  0.000000000  0.158807923

  length of vectors
     6.290120125  6.273890018  6.297039986     0.158982630  0.159390744  0.158807923

 FORCES acting on ions
    electron-ion (+dipol)            ewald-force                    non-local-force                 convergence-correction
   0.889E+02 -.818E-01 0.171E+02   -.969E+02 0.863E-01 -.179E+02   0.826E+01 -.370E-02 0.927E+00   -.200E-02 0.165E-04 -.245E-03
   -.424E+02 -.774E-02 0.333E+01   0.412E+02 0.321E-02 -.333E+01   0.827E+00 0.178E-02 -.288E-01   0.124E-03 0.968E-04 -.115E-03
   0.171E+02 0.538E-01 0.495E+02   -.184E+02 -.616E-01 -.550E+02   0.133E+01 0.769E-02 0.541E+01   -.205E-03 0.365E-05 -.176E-04
   0.252E+02 -.389E+02 -.176E+02   -.275E+02 0.435E+02 0.200E+02   0.220E+01 -.453E+01 -.238E+01   -.203E-03 -.127E-04 -.360E-04
   0.253E+02 0.388E+02 -.177E+02   -.275E+02 -.434E+02 0.202E+02   0.221E+01 0.451E+01 -.239E+01   -.205E-03 0.184E-04 -.380E-04
   -.270E+02 -.490E+02 0.270E+02   0.300E+02 0.546E+02 -.298E+02   -.291E+01 -.544E+01 0.271E+01   0.272E-03 0.439E-03 -.238E-03
   -.269E+02 0.491E+02 0.269E+02   0.299E+02 -.546E+02 -.296E+02   -.290E+01 0.545E+01 0.269E+01   0.275E-03 -.432E-03 -.243E-03
   -.144E+02 -.751E-01 -.583E+02   0.162E+02 0.820E-01 0.648E+02   -.177E+01 -.670E-02 -.636E+01   0.168E-03 0.111E-04 0.511E-03
   -.315E+02 0.635E-01 -.104E+02   0.304E+02 -.626E-01 0.101E+02   0.104E+01 -.740E-03 0.275E+00   -.421E-03 -.202E-03 0.503E-03
   -.110E+02 0.718E-01 0.415E+01   0.110E+02 -.738E-01 -.408E+01   0.405E-01 0.212E-02 -.637E-01   0.405E-03 -.408E-04 -.212E-03
   -.129E+02 -.220E-01 -.174E+02   0.128E+02 0.215E-01 0.179E+02   0.315E-01 0.395E-03 -.488E+00   0.417E-03 0.463E-04 0.192E-03
   0.163E+01 0.306E-01 -.696E+01   -.112E+01 -.291E-01 0.679E+01   -.532E+00 -.137E-02 0.138E+00   0.101E-05 -.528E-04 0.164E-03
   -.782E+01 0.196E-02 -.451E+00   -.151E-13 -.230E-14 -.133E-13   0.782E+01 -.188E-02 0.450E+00   -.137E-02 -.109E-03 0.224E-03

 POSITION                                       TOTAL-FORCE (eV/Angst)
      5.63915      6.27350      6.27384         0.314980      0.000799      0.034470
      0.85821      6.27280      0.15665        -0.332078     -0.002656     -0.026625
      5.40518      6.27196      5.19958        -0.019011     -0.000071     -0.051149
      5.26698      0.90190      0.45292        -0.029302      0.044488      0.020038
      5.26573      5.37368      0.45579        -0.029507     -0.045021      0.020459
      1.26776      0.84227      6.03329         0.057669      0.104555     -0.040933
      1.26657      5.42716      6.03557         0.056756     -0.102453     -0.039655
      1.13753     -0.00001      1.16715         0.030595      0.000234      0.117273
      2.97634      3.13707      2.99511         0.002173      0.000001      0.001398
      2.64610      3.13606      6.12444        -0.018263      0.000075      0.000595
      2.72152      0.00020      3.18965        -0.016486     -0.000012     -0.006419
      6.03902      3.13830      2.81942        -0.017527      0.000059     -0.029453
    total drift:                               -0.000276     -0.000025     -0.000463

  FREE ENERGIE OF THE ION-ELECTRON SYSTEM (eV)
  free  energy   TOTEN  =       -54.83381540 eV

  energy  without entropy=      -54.83381540  energy(sigma->0) =      -54.83381540

 writing wavefunctions

 total charge

# of ion     s       p       d       tot
  1        0.832   1.782   0.000   2.614
  2        1.212   2.768   0.000   3.979
  3        0.619   0.046   0.000   0.665
  4        0.618   0.046   0.000   0.665
  5        0.618   0.046   0.000   0.665
  6        0.587   0.079   0.000   0.666
  7        0.587   0.079   0.000   0.666
  8        0.583   0.079   0.000   0.662
  9        1.477   0.536   9.836  11.849
 10        1.512   2.792   0.009   4.313
 11        1.512   2.792   0.009   4.314
 12        1.513   2.781   0.008   4.302
tot       11.670  13.828   9.862  35.360