 vasp.5.3.5 31Mar14 (build Apr 15 2015 10:45:18) complex

 executed on             LinuxIFC date 2016.01.30  11:40:56

 INCAR:
 POTCAR:   PAW Cd 03Mar1998
 POTCAR:   PAW Te 03Oct2001

 POTCAR:   PAW Cd 03Mar1998
   VRHFIN =Cd : s2 d10

   TITEL  = PAW Cd 03Mar1998
   POMASS =  112.411; ZVAL   =   12.000    mass and valenz
   ENMAX  =  274.265; ENMIN  =  205.699 eV
   QCUT   =   -4.490; QGAM   =    8.980    optimization parameters

   Description
     l     E      TYP  RCUT    TYP  RCUT
     2   .000     23  2.300
     2   .000     23  2.300
     0   .000     23  2.300
     0   .000     23  2.300
     1  -.200     23  2.300
     1   .000     23  2.300
     3   .000      7   .000

 POTCAR:   PAW Te 03Oct2001
   VRHFIN =Te: s2p4

   TITEL  = PAW Te 03Oct2001
   POMASS =  127.600; ZVAL   =    6.000    mass and valenz
   ENMAX  =  175.144; ENMIN  =  131.358 eV
   QCUT   =   -3.588; QGAM   =    7.176    optimization parameters

   Description
     l     E      TYP  RCUT    TYP  RCUT
     0   .000     23  2.300
     0   .000     23  2.300
     1   .000     23  2.300
     1   .000     23  2.300
     2   .000     23  2.300
     3  -.100     23  2.300

 PAW Cd 03Mar1998                       :
 PAW Te 03Oct2001                       :

 POSCAR: CdTe (ICSD, 295K, Rabadanov 2001)
  positions in direct lattice
  velocities in cartesian coordinates
 exchange correlation table for  LEXCH =        2
   RHO(1)=    0.500       N(1)  =     2000
   RHO(2)=  100.500       N(2)  =     4000

 ion  position               nearest neighbor table
   1  0.000  0.000  0.000-   2 2.81   2 2.81   2 2.81   2 2.81
   2  0.250  0.250  0.250-   1 2.81   1 2.81   1 2.81   1 2.81

  LATTYP: Found a face centered cubic cell.
 ALAT       =     6.4827000000

  Lattice vectors:

 A1 = (   3.2413500000,   3.2413500000,   0.0000000000)
 A2 = (   3.2413500000,   0.0000000000,  -3.2413500000)
 A3 = (   0.0000000000,   3.2413500000,  -3.2413500000)

Analysis of symmetry for initial positions (statically):
 Subroutine PRICEL returns:
 Original cell was already a primitive cell.

 Routine SETGRP: Setting up the symmetry group for a
 face centered cubic supercell.

 Subroutine GETGRP returns: Found 24 space group operations
 (whereof 24 operations were pure point group operations)
 out of a pool of 48 trial point group operations.

The static configuration has the point symmetry T_d .

Analysis of symmetry for dynamics (positions and initial velocities):
 Subroutine PRICEL returns:
 Original cell was already a primitive cell.

 Routine SETGRP: Setting up the symmetry group for a
 face centered cubic supercell.

 Subroutine GETGRP returns: Found 24 space group operations
 (whereof 24 operations were pure point group operations)
 out of a pool of 48 trial point group operations.

The dynamic configuration has the point symmetry T_d .

 KPOINTS: Automatically generated mesh
  k-points in reciprocal lattice
Space group operators:
 irot       det(A)        alpha          n_x          n_y          n_z        tau_x        tau_y        tau_z
    1     1.000000     0.000000     1.000000     0.000000     0.000000     0.000000     0.000000     0.000000
    2     1.000000   120.000000    -0.577350    -0.577350     0.577350     0.000000     0.000000     0.000000
    3     1.000000   120.000000     0.577350     0.577350    -0.577350     0.000000     0.000000     0.000000
    4    -1.000000    90.000000    -1.000000     0.000000     0.000000     0.000000     0.000000     0.000000
    5    -1.000000   180.000000     0.707107     0.707107     0.000000     0.000000     0.000000     0.000000
    6    -1.000000    90.000000     0.000000     1.000000     0.000000     0.000000     0.000000     0.000000
    7     1.000000   180.000000     1.000000     0.000000     0.000000     0.000000     0.000000     0.000000
    8     1.000000   120.000000     0.577350     0.577350     0.577350     0.000000     0.000000     0.000000
    9     1.000000   120.000000    -0.577350     0.577350     0.577350     0.000000     0.000000     0.000000
   10    -1.000000    90.000000     1.000000     0.000000     0.000000     0.000000     0.000000     0.000000
   11    -1.000000    90.000000     0.000000     0.000000     1.000000     0.000000     0.000000     0.000000
   12    -1.000000   180.000000     0.707107     0.000000    -0.707107     0.000000     0.000000     0.000000
   13     1.000000   120.000000     0.577350    -0.577350    -0.577350     0.000000     0.000000     0.000000
   14     1.000000   120.000000     0.577350    -0.577350     0.577350     0.000000     0.000000     0.000000
   15     1.000000   180.000000     0.000000     0.000000     1.000000     0.000000     0.000000     0.000000
   16    -1.000000    90.000000     0.000000    -1.000000     0.000000     0.000000     0.000000     0.000000
   17    -1.000000   180.000000     0.000000    -0.707107     0.707107     0.000000     0.000000     0.000000
   18    -1.000000    90.000000     0.000000     0.000000    -1.000000     0.000000     0.000000     0.000000
   19     1.000000   120.000000    -0.577350    -0.577350    -0.577350     0.000000     0.000000     0.000000
   20     1.000000   180.000000     0.000000     1.000000     0.000000     0.000000     0.000000     0.000000
   21     1.000000   120.000000    -0.577350     0.577350    -0.577350     0.000000     0.000000     0.000000
   22    -1.000000   180.000000     0.707107    -0.707107     0.000000     0.000000     0.000000     0.000000
   23    -1.000000   180.000000     0.000000     0.707107     0.707107     0.000000     0.000000     0.000000
   24    -1.000000   180.000000     0.707107     0.000000     0.707107     0.000000     0.000000     0.000000

 I would recommend the setting:
   dimension x,y,z NGX =    33 NGY =   33 NGZ =   33
 SYSTEM =  Name
 POSCAR =  CdTe (ICSD, 295K, Rabadanov 2001)

 Startparameter for this run:
   NWRITE =      2    write-flag & timer
   PREC   = accura    normal or accurate (medium, high low for compatibility)
   ISTART =      0    job   : 0-new  1-cont  2-samecut
   ICHARG =     11    charge: 1-file 2-atom 10-const
   ISPIN  =      1    spin polarized calculation?
   LNONCOLLINEAR =      F non collinear calculations
   LSORBIT =      F    spin-orbit coupling
   INIWAV =      1    electr: 0-lowe 1-rand  2-diag
   LASPH  =      F    aspherical Exc in radial PAW
   METAGGA=      F    non-selfconsistent MetaGGA calc.

 Electronic Relaxation 1
   ENCUT  =  500.0 eV  36.75 Ry    6.06 a.u.   8.36  8.36  8.36*2*pi/ulx,y,z
   ENINI  =  500.0     initial cutoff
   ENAUG  =  456.1 eV  augmentation charge cutoff
   NELM   =     60;   NELMIN=  2; NELMDL=  0     # of ELM steps
   EDIFF  = 0.1E-05   stopping-criterion for ELM
   LREAL  =      F    real-space projection
   NLSPLINE    = F    spline interpolate recip. space projectors
   LCOMPAT=      F    compatible to vasp.4.4
   GGA_COMPAT  = T    GGA compatible to vasp.4.4-vasp.4.6
   LMAXPAW     = -100 max onsite density
   LMAXMIX     =    2 max onsite mixed and CHGCAR
   VOSKOWN=      0    Vosko Wilk Nusair interpolation
   ROPT   =    0.00000   0.00000
 Ionic relaxation
   EDIFFG = -.5E-02   stopping-criterion for IOM
   NSW    =      1    number of steps for IOM
   NBLOCK =      1;   KBLOCK =      1    inner block; outer block
   IBRION =      2    ionic relax: 0-MD 1-quasi-New 2-CG
   NFREE  =      1    steps in history (QN), initial steepest desc. (CG)
   ISIF   =      3    stress and relaxation
   IWAVPR =     11    prediction:  0-non 1-charg 2-wave 3-comb
   ISYM   =      2    0-nonsym 1-usesym 2-fastsym
   LCORR  =      T    Harris-Foulkes like correction to forces

   POTIM  = 0.5000    time-step for ionic-motion
   TEIN   =    0.0    initial temperature
   TEBEG  =    0.0;   TEEND  =   0.0 temperature during run
   SMASS  =  -3.00    Nose mass-parameter (am)
   estimated Nose-frequenzy (Omega)   =  0.10E-29 period in steps =****** mass=  -0.480E-27a.u.
   SCALEE = 1.0000    scale energy and forces
   NPACO  =    256;   APACO  = 16.0  distance and # of slots for P.C.
   PSTRESS=    0.0 pullay stress

  Mass of Ions in am
   POMASS = 112.41127.60
  Ionic Valenz
   ZVAL   =  12.00  6.00
  Atomic Wigner-Seitz radii
  virtual crystal weights
   VCA    =   1.00  1.00
   NELECT =      18.0000    total number of electrons
   NUPDOWN=      -1.0000    fix difference up-down

 DOS related values:
   EMIN   =  10.00;   EMAX   =-10.00  energy-range for DOS
   EFERMI =   0.00
   ISMEAR =     0;   SIGMA  =   0.01  broadening in eV -4-tet -1-fermi 0-gaus

 Electronic relaxation 2 (details)
   IALGO  =     38    algorithm
   LDIAG  =      T    sub-space diagonalisation (order eigenvalues)
   LSUBROT=      F    optimize rotation matrix (better conditioning)
   TURBO    =      0    0=normal 1=particle mesh
   IRESTART =      0    0=no restart 2=restart with 2 vectors
   NREBOOT  =      0    no. of reboots
   NMIN     =      0    reboot dimension
   EREF     =   0.00    reference energy to select bands
   IMIX   =      4    mixing-type and parameters
     AMIX     =   0.40;   BMIX     =  1.00
     AMIX_MAG =   1.60;   BMIX_MAG =  1.00
     AMIN     =   0.01
     WC   =   100.;   INIMIX=   1;  MIXPRE=   1;  MAXMIX= -45

 Intra band minimization:
   WEIMIN = 0.0010     energy-eigenvalue tresh-hold
   EBREAK =  0.16E-07  absolut break condition
   DEPER  =   0.30     relativ break condition

   TIME   =   0.40     timestep for ELM

  volume/ion in A,a.u.               =      34.05       229.81
  Fermi-wavevector in a.u.,A,eV,Ry     =   1.050581  1.985311 15.017042  1.103721
  Thomas-Fermi vector in A             =   2.185590

 Write flags
   LWAVE  =      T    write WAVECAR
   LCHARG =      T    write CHGCAR
   LVTOT  =      F    write LOCPOT, total local potential
   LVHAR  =      F    write LOCPOT, Hartree potential only
   LELF   =      F    write electronic localiz. function (ELF)
   LORBIT =     10    0 simple, 1 ext, 2 COOP (PROOUT)

 Dipole corrections
   LMONO  =      F    monopole corrections only (constant potential shift)
   LDIPOL =      F    correct potential (dipole corrections)
   IDIPOL =      0    1-x, 2-y, 3-z, 4-all directions
   EPSILON=  1.0000000 bulk dielectric constant

 Core level calculations are selected ICORELEVEL =  1
 Exchange correlation treatment:
   GGA     =    --    GGA type
   VOSKOWN=      0    Vosko Wilk Nusair interpolation
   LHFCALC =     F    Hartree Fock is set to
   LHFONE  =     F    Hartree Fock one center treatment
   AEXX    =    0.0000 exact exchange contribution

 Linear response parameters
   LEPSILON=     F    determine dielectric tensor
   LRPA    =     F    only Hartree local field effects (RPA)
   LNABLA  =     F    use nabla operator in PAW spheres
   LVEL    =     F    velocity operator in full k-point grid
   LINTERFAST=   F  fast interpolation
   KINTER  =     0    interpolate to denser k-point grid
   CSHIFT  =0.1000    complex shift for real part using Kramers Kronig
   OMEGAMAX=  -1.0    maximum frequency
   DEG_THRESHOLD= 0.2000000E-02 threshold for treating states as degnerate
   RTIME   =    0.100 relaxation time in fs

 Orbital magnetization related:
   ORBITALMAG=     F  switch on orbital magnetization
[...]
   0.00000000  0.00000000  0.00000000
   1.62067500  1.62067500 -1.62067500

 k-point  1 :   0.0000 0.0000 0.0000  plane waves:    1759
 k-point  2 :   0.1667 0.0000 0.0000  plane waves:    1747
 k-point  3 :   0.3333 0.0000 0.0000  plane waves:    1730
 k-point  4 :   0.5000 0.0000 0.0000  plane waves:    1718
 k-point  5 :   0.1667 0.1667 0.0000  plane waves:    1736
 k-point  6 :   0.3333 0.1667 0.0000  plane waves:    1729
 k-point  7 :   0.5000 0.1667 0.0000  plane waves:    1739
 k-point  8 :  -0.3333 0.1667 0.0000  plane waves:    1732
 k-point  9 :  -0.1667 0.1667 0.0000  plane waves:    1735
 k-point 10 :   0.3333 0.3333 0.0000  plane waves:    1728
 k-point 11 :   0.5000 0.3333 0.0000  plane waves:    1723
 k-point 12 :  -0.3333 0.3333 0.0000  plane waves:    1726
 k-point 13 :   0.5000 0.5000 0.0000  plane waves:    1724
 k-point 14 :   0.5000 0.3333 0.1667  plane waves:    1724
 k-point 15 :  -0.3333 0.3333 0.1667  plane waves:    1726
 k-point 16 :  -0.3333 0.5000 0.1667  plane waves:    1722
 k-point 17 :   0.0000 0.0000 0.0000  plane waves:    1759
 k-point 18 :   0.0050 0.0000 0.0050  plane waves:    1759
 k-point 19 :   0.0100 0.0000 0.0100  plane waves:    1767
 k-point 20 :   0.0150 0.0000 0.0150  plane waves:    1775
 k-point 21 :   0.0200 0.0000 0.0200  plane waves:    1763
 k-point 22 :   0.0250 0.0000 0.0250  plane waves:    1755
 k-point 23 :   0.0300 0.0000 0.0300  plane waves:    1755
 k-point 24 :   0.0350 0.0000 0.0350  plane waves:    1755
 k-point 25 :   0.0400 0.0000 0.0400  plane waves:    1763
 k-point 26 :   0.0450 0.0000 0.0450  plane waves:    1763
 k-point 27 :   0.0500 0.0000 0.0500  plane waves:    1763
 k-point 28 :   0.0550 0.0000 0.0550  plane waves:    1763
 k-point 29 :   0.0600 0.0000 0.0600  plane waves:    1747
 k-point 30 :   0.0650 0.0000 0.0650  plane waves:    1747
 k-point 31 :   0.0700 0.0000 0.0700  plane waves:    1747
 k-point 32 :   0.0750 0.0000 0.0750  plane waves:    1747
 k-point 33 :   0.0800 0.0000 0.0800  plane waves:    1747
 k-point 34 :   0.0850 0.0000 0.0850  plane waves:    1747
 k-point 35 :   0.0900 0.0000 0.0900  plane waves:    1747
 k-point 36 :   0.0950 0.0000 0.0950  plane waves:    1744
 k-point 37 :   0.1000 0.0000 0.1000  plane waves:    1744
 k-point 38 :   0.1050 0.0000 0.1050  plane waves:    1744
 k-point 39 :   0.1100 0.0000 0.1100  plane waves:    1744
 k-point 40 :   0.1150 0.0000 0.1150  plane waves:    1740
 k-point 41 :   0.1200 0.0000 0.1200  plane waves:    1740
 k-point 42 :   0.1250 0.0000 0.1250  plane waves:    1740
 k-point 43 :   0.1300 0.0000 0.1300  plane waves:    1740
 k-point 44 :   0.1350 0.0000 0.1350  plane waves:    1740
 k-point 45 :   0.1400 0.0000 0.1400  plane waves:    1748
 k-point 46 :   0.1450 0.0000 0.1450  plane waves:    1748
 k-point 47 :   0.1500 0.0000 0.1500  plane waves:    1748
 k-point 48 :   0.1550 0.0000 0.1550  plane waves:    1736
 k-point 49 :   0.1600 0.0000 0.1600  plane waves:    1736
 k-point 50 :   0.1650 0.0000 0.1650  plane waves:    1736
 k-point 51 :   0.1700 0.0000 0.1700  plane waves:    1744
 k-point 52 :   0.1750 0.0000 0.1750  plane waves:    1744
 k-point 53 :   0.1800 0.0000 0.1800  plane waves:    1748
 k-point 54 :   0.1850 0.0000 0.1850  plane waves:    1748
 k-point 55 :   0.1900 0.0000 0.1900  plane waves:    1744
 k-point 56 :   0.1950 0.0000 0.1950  plane waves:    1736
 k-point 57 :   0.2000 0.0000 0.2000  plane waves:    1736
 k-point 58 :   0.2050 0.0000 0.2050  plane waves:    1736
 k-point 59 :   0.2100 0.0000 0.2100  plane waves:    1736
 k-point 60 :   0.2150 0.0000 0.2150  plane waves:    1736
[...]
 k-point 85 :   0.3400 0.0000 0.3400  plane waves:    1728
 k-point 86 :   0.3450 0.0000 0.3450  plane waves:    1728
 k-point 87 :   0.3500 0.0000 0.3500  plane waves:    1728
 k-point 88 :   0.3550 0.0000 0.3550  plane waves:    1724
 k-point 89 :   0.3600 0.0000 0.3600  plane waves:    1732
 k-point 90 :   0.3650 0.0000 0.3650  plane waves:    1732
 k-point 91 :   0.3700 0.0000 0.3700  plane waves:    1728
 k-point 92 :   0.3750 0.0000 0.3750  plane waves:    1728
 k-point 93 :   0.3800 0.0000 0.3800  plane waves:    1728
 k-point 94 :   0.3850 0.0000 0.3850  plane waves:    1728
 k-point 95 :   0.3900 0.0000 0.3900  plane waves:    1728
 k-point 96 :   0.3950 0.0000 0.3950  plane waves:    1728
 k-point 97 :   0.4000 0.0000 0.4000  plane waves:    1736
 k-point 98 :   0.4050 0.0000 0.4050  plane waves:    1728
 k-point 99 :   0.4100 0.0000 0.4100  plane waves:    1728
 k-point ** :   0.4150 0.0000 0.4150  plane waves:    1728
 k-point ** :   0.4200 0.0000 0.4200  plane waves:    1728
 k-point ** :   0.4250 0.0000 0.4250  plane waves:    1728
 k-point ** :   0.4300 0.0000 0.4300  plane waves:    1728
 k-point ** :   0.4350 0.0000 0.4350  plane waves:    1720
 k-point ** :   0.4400 0.0000 0.4400  plane waves:    1724
 k-point ** :   0.4450 0.0000 0.4450  plane waves:    1724
 k-point ** :   0.4500 0.0000 0.4500  plane waves:    1732
 k-point ** :   0.4550 0.0000 0.4550  plane waves:    1732
 k-point ** :   0.4600 0.0000 0.4600  plane waves:    1732
 k-point ** :   0.4650 0.0000 0.4650  plane waves:    1732
 k-point ** :   0.4700 0.0000 0.4700  plane waves:    1732
 k-point ** :   0.4750 0.0000 0.4750  plane waves:    1724
 k-point ** :   0.4800 0.0000 0.4800  plane waves:    1724
 k-point ** :   0.4850 0.0000 0.4850  plane waves:    1724
 k-point ** :   0.4900 0.0000 0.4900  plane waves:    1724
 k-point ** :   0.4950 0.0000 0.4950  plane waves:    1724
 k-point ** :   0.5000 0.0000 0.5000  plane waves:    1724
 k-point ** :   0.5000 0.0050 0.5050  plane waves:    1724
 k-point ** :   0.5000 0.0100 0.5100  plane waves:    1724
 k-point ** :   0.5000 0.0150 0.5150  plane waves:    1724
 k-point ** :   0.5000 0.0200 0.5200  plane waves:    1724
 k-point ** :   0.5000 0.0250 0.5250  plane waves:    1724
 k-point ** :   0.5000 0.0300 0.5300  plane waves:    1724
 k-point ** :   0.5000 0.0350 0.5350  plane waves:    1728
 k-point ** :   0.5000 0.0400 0.5400  plane waves:    1724
 k-point ** :   0.5000 0.0450 0.5450  plane waves:    1724
 k-point ** :   0.5000 0.0500 0.5500  plane waves:    1724
 k-point ** :   0.5000 0.0550 0.5550  plane waves:    1724
 k-point ** :   0.5000 0.0600 0.5600  plane waves:    1724
 k-point ** :   0.5000 0.0650 0.5650  plane waves:    1724
 k-point ** :   0.5000 0.0700 0.5700  plane waves:    1720
 k-point ** :   0.5000 0.0750 0.5750  plane waves:    1720
 k-point ** :   0.5000 0.0800 0.5800  plane waves:    1720
 k-point ** :   0.5000 0.0850 0.5850  plane waves:    1720
 k-point ** :   0.5000 0.0900 0.5900  plane waves:    1720
 k-point ** :   0.5000 0.0950 0.5950  plane waves:    1720
 k-point ** :   0.5000 0.1000 0.6000  plane waves:    1720
 k-point ** :   0.5000 0.1050 0.6050  plane waves:    1720
 k-point ** :   0.5000 0.1100 0.6100  plane waves:    1720
 k-point ** :   0.5000 0.1150 0.6150  plane waves:    1718
 k-point ** :   0.5000 0.1200 0.6200  plane waves:    1722
 k-point ** :   0.5000 0.1250 0.6250  plane waves:    1722
 k-point ** :   0.5000 0.1300 0.6300  plane waves:    1718
 k-point ** :   0.5000 0.1350 0.6350  plane waves:    1722
 k-point ** :   0.5000 0.1400 0.6400  plane waves:    1722
 k-point ** :   0.5000 0.1450 0.6450  plane waves:    1722
 k-point ** :   0.5000 0.1500 0.6500  plane waves:    1728
 k-point ** :   0.5000 0.1550 0.6550  plane waves:    1728
 k-point ** :   0.5000 0.1600 0.6600  plane waves:    1724
 k-point ** :   0.5000 0.1650 0.6650  plane waves:    1722
 k-point ** :   0.5000 0.1700 0.6700  plane waves:    1724
 k-point ** :   0.5000 0.1750 0.6750  plane waves:    1724
 k-point ** :   0.5000 0.1800 0.6800  plane waves:    1736
 k-point ** :   0.5000 0.1850 0.6850  plane waves:    1736
 k-point ** :   0.5000 0.1900 0.6900  plane waves:    1736
 k-point ** :   0.5000 0.1950 0.6950  plane waves:    1736
 k-point ** :   0.5000 0.2000 0.7000  plane waves:    1732
 k-point ** :   0.5000 0.2050 0.7050  plane waves:    1732
 k-point ** :   0.5000 0.2100 0.7100  plane waves:    1732
[...]
 k-point ** :   0.4186 0.4186 0.6628  plane waves:    1728
 k-point ** :   0.4157 0.4157 0.6686  plane waves:    1735
 k-point ** :   0.4128 0.4128 0.6744  plane waves:    1729
 k-point ** :   0.4099 0.4099 0.6802  plane waves:    1729
 k-point ** :   0.4070 0.4070 0.6860  plane waves:    1730
 k-point ** :   0.4041 0.4041 0.6919  plane waves:    1728
 k-point ** :   0.4012 0.4012 0.6977  plane waves:    1728
 k-point ** :   0.3983 0.3983 0.7035  plane waves:    1730
 k-point ** :   0.3953 0.3953 0.7093  plane waves:    1730
 k-point ** :   0.3924 0.3924 0.7151  plane waves:    1730
 k-point ** :   0.3895 0.3895 0.7209  plane waves:    1730
 k-point ** :   0.3866 0.3866 0.7267  plane waves:    1730
 k-point ** :   0.3837 0.3837 0.7326  plane waves:    1730
 k-point ** :   0.3808 0.3808 0.7384  plane waves:    1730
 k-point ** :   0.3779 0.3779 0.7442  plane waves:    1730

 maximum and minimum number of plane-waves per node :      1775     1716

 maximum number of plane-waves:      1775
 maximum index in each direction:
   IXMAX=    8   IYMAX=    8   IZMAX=    8
   IXMIN=   -8   IYMIN=   -8   IZMIN=   -9

 NGX is ok and might be reduce to  34
 NGY is ok and might be reduce to  34
 NGZ is ok and might be reduce to  36

 serial   3D FFT for wavefunctions
 parallel 3D FFT for charge:
    minimum data exchange during FFTs selected (reduces bandwidth)

 initial charge density was supplied:
 number of electron      17.9999994 magnetization
 keeping initial charge density in first step

 Maximum index for augmentation-charges         9730 (set IRDMAX)

 First call to EWALD:  gamma=   0.434
 Maximum number of real-space cells 3x 3x 3
 Maximum number of reciprocal cells 3x 3x 3

 FEWALD executed in parallel

----------------------------------------- Iteration    1(   1)  ---------------------------------------

 eigenvalue-minimisations  : 19544
 total energy-change (2. order) : 0.9958756E+02  (-0.8279415E+03)
 number of electron      17.9999994 magnetization
 augmentation part       17.9999994 magnetization

 Free energy of the ion-electron system (eV)
  alpha Z        PSCENC =        48.00481358
  Ewald energy   TEWEN  =     -1044.83138452
  -Hartree energ DENC   =      -490.80486102
  -exchange      EXHF   =         0.00000000
  -V(xc)+E(xc)   XCENC  =       -21.83197001
  PAW double counting   =      1155.59046120    -1087.09407035
  entropy T*S    EENTRO =        -0.00059585
  eigenvalues    EBANDS =        19.17203558
  atomic energy  EATOM  =      1521.38312781
  free energy    TOTEN  =        99.58755641 eV

  energy without entropy =       99.58815226  energy(sigma->0) =       99.58785434

[...]

 eigenvalue-minimisations  : 23592
 total energy-change (2. order) :-0.1020443E+03  (-0.9781797E+02)
 number of electron      17.9999994 magnetization
 augmentation part       17.9999994 magnetization

[...]

----------------------------------------- Iteration    1(   7)  ---------------------------------------

 eigenvalue-minimisations  : 19656
 total energy-change (2. order) :-0.1342596E-07  (-0.1336773E-07)
 number of electron      17.9999994 magnetization
 augmentation part       17.9999994 magnetization

 Free energy of the ion-electron system (eV)
  alpha Z        PSCENC =        48.00481358
  Ewald energy   TEWEN  =     -1044.83138452
  -Hartree energ DENC   =      -490.80486102
  -exchange      EXHF   =         0.00000000
  -V(xc)+E(xc)   XCENC  =       -21.83197001
  PAW double counting   =      1155.59046120    -1087.09407035
  entropy T*S    EENTRO =        -0.00000000
  eigenvalues    EBANDS =       -86.57601485
  atomic energy  EATOM  =      1521.38312781
  free energy    TOTEN  =        -6.15989817 eV

  energy without entropy =       -6.15989817  energy(sigma->0) =       -6.15989817

 the core state eigenenergies are
   1-  1s -26365.0934  2s  -3915.2376  2p  -3518.4144  3s   -725.6270  3p   -594.9143
       3d   -388.9682  4s   -100.6060  4p    -61.7192
   2-  1s -31429.2503  2s  -4819.8375  2p  -4332.9110  3s   -953.3821  3p   -794.4675
       3d   -552.6178  4s   -156.3227  4p   -106.8100  4d    -33.8818

 E-fermi :   2.0541     XC(G=0):  -8.9825     alpha+bet : -7.4773

 k-point     1 :       0.0000    0.0000    0.0000
  band No.  band energies     occupation
      1      -9.2369      2.00000
      2      -6.9853      2.00000
      3      -6.9853      2.00000
      4      -6.9853      2.00000
      5      -6.7576      2.00000
      6      -6.7576      2.00000
      7       1.9590      2.00000
      8       1.9590      2.00000
      9       1.9590      2.00000
     10       2.5950      0.00000
     11       6.5977      0.00000
     12       6.5977      0.00000
     13       6.5977      0.00000
     14       9.3583      0.00000
     15      11.3897      0.00000
     16      11.3897      0.00000

[...]

 k-point   603 :       0.3779    0.3779    0.7442
  band No.  band energies     occupation
      1      -8.8549      2.00000
      2      -6.8880      2.00000
      3      -6.8709      2.00000
      4      -6.7955      2.00000
      5      -6.7467      2.00000
      6      -6.1395      2.00000
      7      -2.2197      2.00000
      8      -0.5476      2.00000
      9       0.4785      2.00000
     10       4.8575      0.00000
     11       6.5268      0.00000
     12       9.2453      0.00000
     13       9.3869      0.00000
     14       9.6723      0.00000
     15      11.5879      0.00000
     16      14.2687      0.00000

 soft charge-density along one line, spin component           1
         0         1         2         3         4         5         6         7         8         9
 total charge-density along one line

------------------------ aborting loop because EDIFF is reached ----------------------------------------

 total charge

# of ion     s       p       d       tot
  1        0.481   0.322   9.537  10.340
  2        1.360   2.074   0.021   3.456
tot        1.841   2.397   9.558  13.796

  FORCE on cell =-STRESS in cart. coord.  units (eV):
  Direction    XX          YY          ZZ          XY          YZ          ZX
  Alpha Z    48.00481    48.00481    48.00481
  Ewald    -348.27726  -348.27726  -348.27726     0.00000     0.00000    -0.00000
  Hartree   170.77477   170.77477   170.77477     0.00000    -0.00000    -0.00000
  E(xc)     -84.87237   -84.87237   -84.87237    -0.00000     0.00000     0.00000
  Local     -19.62980   -19.62980   -19.62980     0.00001    -0.00001    -0.00001
  n-local    29.32171    35.05732    34.08557    -1.86276    -3.19754    -1.21934
  augment     8.28516     8.28516     8.28516    -0.00001     0.00001     0.00001
  Kinetic   202.17924   206.00070   206.14985    -1.68525    -3.16548    -1.27279
  Fock        0.00000     0.00000     0.00000     0.00000     0.00000     0.00000
  Total      11.88345    11.88345    11.88345     0.00000    -0.00000    -0.00000
  in kB     279.54089   279.54089   279.54089     0.00000    -0.00000    -0.00000

 VOLUME and BASIS-vectors are now :
  energy-cutoff  :      500.00
  volume of cell :       68.11
      direct lattice vectors                 reciprocal lattice vectors
     3.241350000  3.241350000  0.000000000     0.154256714  0.154256714  0.154256714
     3.241350000  0.000000000 -3.241350000     0.154256714 -0.154256714 -0.154256714
     0.000000000  3.241350000 -3.241350000    -0.154256714  0.154256714 -0.154256714

  length of vectors
     4.583961130  4.583961130  4.583961130     0.267180466  0.267180466  0.267180466

 FORCES acting on ions
    electron-ion (+dipol)            ewald-force                    non-local-force                 convergence-correction
   -.251E-08 -.272E-08 0.272E-08   -.153E-13 -.130E-13 0.167E-13   -.694E-17 0.694E-17 0.694E-17   -.361E-09 -.361E-09 0.361E-09
   0.195E-06 0.202E-06 -.202E-06   0.145E-13 0.128E-13 -.169E-13   0.269E-16 0.278E-16 0.278E-16   -.482E-10 -.482E-10 0.483E-10
   0.192E-06 0.199E-06 -.199E-06   -.840E-15 -.129E-15 -.231E-15   0.199E-16 0.347E-16 0.347E-16   -.409E-09 -.409E-09 0.409E-09

 POSITION                                       TOTAL-FORCE (eV/Angst)
      0.00000      0.00000      0.00000         0.000000      0.000000      0.000000
      1.62068      1.62068     -1.62068        -0.000000     -0.000000     -0.000000
    total drift:                                0.000000      0.000000     -0.000000

  FREE ENERGIE OF THE ION-ELECTRON SYSTEM (eV)
  free  energy   TOTEN  =        -6.15989817 eV

  energy  without entropy=       -6.15989817  energy(sigma->0) =       -6.15989817

 writing wavefunctions

 total charge

# of ion     s       p       d       tot
  1        0.481   0.322   9.537  10.340
  2        1.360   2.074   0.021   3.456
tot        1.841   2.397   9.558  13.796