 vasp.5.3.5 31Mar14 (build Mar 26 2015 15:03:36) complex

 executed on             LinuxIFC date 2015.12.16  11:30:29

 INCAR:
 POTCAR:    PAW_PBE Cd 06Sep2000
 POTCAR:    PAW_PBE Te 08Apr2002

 POTCAR:    PAW_PBE Cd 06Sep2000
   VRHFIN =Cd : s2 d10

   TITEL  = PAW_PBE Cd 06Sep2000
   POMASS =  112.411; ZVAL   =   12.000    mass and valenz
   ENMAX  =  274.336; ENMIN  =  205.752 eV

 POTCAR:    PAW_PBE Te 08Apr2002
   VRHFIN =Te: s2p4

   TITEL  = PAW_PBE Te 08Apr2002
   POMASS =  127.600; ZVAL   =    6.000    mass and valenz
   ENMAX  =  174.982; ENMIN  =  131.236 eV

  PAW_PBE Cd 06Sep2000                  :
  PAW_PBE Te 08Apr2002                  :

 POSCAR: Cd1 Te1
  positions in direct lattice
 exchange correlation table for  LEXCH =        8
   RHO(1)=    0.500       N(1)  =     2000
   RHO(2)=  100.500       N(2)  =     4000

 ion  position               nearest neighbor table
   1  0.000  0.000  0.000-   5 2.80   6 2.80   7 2.80   8 2.80
   2  0.000  0.500  0.500-   5 2.80   6 2.80   7 2.80   8 2.80
   3  0.500  0.000  0.500-   5 2.80   6 2.80   7 2.80   8 2.80
   4  0.500  0.500  0.000-   5 2.80   6 2.80   7 2.80   8 2.80
   5  0.250  0.250  0.250-   1 2.80   2 2.80   3 2.80   4 2.80
   6  0.750  0.750  0.250-   1 2.80   2 2.80   3 2.80   4 2.80
   7  0.750  0.250  0.750-   1 2.80   2 2.80   3 2.80   4 2.80
   8  0.250  0.750  0.750-   1 2.80   2 2.80   3 2.80   4 2.80

  LATTYP: Found a simple cubic cell.
 ALAT       =     6.4759998322

  Lattice vectors:

 A1 = (   6.4759998322,   0.0000000000,   0.0000000000)
 A2 = (   0.0000000000,   6.4759998322,   0.0000000000)
 A3 = (   0.0000000000,   0.0000000000,   6.4759998322)

Analysis of symmetry for initial positions (statically):
 Subroutine PRICEL returns following result:

  LATTYP: Found a face centered cubic cell.
 ALAT       =     6.4759998322

[...]

   4 primitive cells build up your supercell.

 Routine SETGRP: Setting up the symmetry group for a
 simple cubic supercell.

 Subroutine GETGRP returns: Found 24 space group operations
 (whereof 24 operations were pure point group operations)
 out of a pool of 48 trial point group operations.

The static configuration has the point symmetry T_d .

Analysis of symmetry for dynamics (positions and initial velocities):
 Subroutine PRICEL returns following result:

  LATTYP: Found a face centered cubic cell.
 ALAT       =     6.4759998322

  Lattice vectors:

 A1 = (   3.2379999161,   3.2379999161,  -0.0000000000)
 A2 = (   3.2379999161,   0.0000000000,  -3.2379999161)
 A3 = (   0.0000000000,   3.2379999161,  -3.2379999161)

   4 primitive cells build up your supercell.

 Routine SETGRP: Setting up the symmetry group for a
 simple cubic supercell.

 Subroutine GETGRP returns: Found 24 space group operations
 (whereof 24 operations were pure point group operations)
 out of a pool of 48 trial point group operations.

The dynamic configuration has the point symmetry T_d .

 KPOINTS: Automatic mesh

Automatic generation of k-mesh.
Space group operators:
 irot       det(A)        alpha          n_x          n_y          n_z        tau_x        tau_y        tau_z
    1     1.000000     0.000000     1.000000     0.000000     0.000000     0.000000     0.000000     0.000000
    2     1.000000   120.000000    -0.577350    -0.577350    -0.577350     0.000000     0.000000     0.000000
    3     1.000000   120.000000     0.577350     0.577350     0.577350     0.000000     0.000000     0.000000
    4    -1.000000    90.000000     0.000000     0.000000    -1.000000     0.000000     0.000000     0.000000
    5    -1.000000   180.000000     0.000000     0.707107     0.707107     0.000000     0.000000     0.000000
    6    -1.000000    90.000000     0.000000     1.000000     0.000000     0.000000     0.000000     0.000000
    7     1.000000   179.999999     0.000000     0.000000     1.000000     0.000000     0.000000     0.000000
    8     1.000000   120.000000    -0.577350     0.577350     0.577350     0.000000     0.000000     0.000000
    9     1.000000   120.000000    -0.577350     0.577350    -0.577350     0.000000     0.000000     0.000000
   10    -1.000000    90.000000     0.000000     0.000000     1.000000     0.000000     0.000000     0.000000
   11    -1.000000    90.000000    -1.000000     0.000000     0.000000     0.000000     0.000000     0.000000
   12    -1.000000   180.000000     0.707107     0.000000     0.707107     0.000000     0.000000     0.000000
   13     1.000000   120.000000     0.577350    -0.577350     0.577350     0.000000     0.000000     0.000000
   14     1.000000   120.000000    -0.577350    -0.577350     0.577350     0.000000     0.000000     0.000000
   15     1.000000   180.000000     1.000000     0.000000     0.000000     0.000000     0.000000     0.000000
   16    -1.000000    90.000000     0.000000    -1.000000     0.000000     0.000000     0.000000     0.000000
   17    -1.000000   180.000000     0.707107     0.707107     0.000000     0.000000     0.000000     0.000000
   18    -1.000000    90.000000     1.000000     0.000000     0.000000     0.000000     0.000000     0.000000
   19     1.000000   120.000000     0.577350    -0.577350    -0.577350     0.000000     0.000000     0.000000
   20     1.000000   180.000000     0.000000     1.000000     0.000000     0.000000     0.000000     0.000000
   21     1.000000   120.000000     0.577350     0.577350    -0.577350     0.000000     0.000000     0.000000
   22    -1.000000   180.000000     0.000000    -0.707107     0.707107     0.000000     0.000000     0.000000
   23    -1.000000   180.000000     0.707107    -0.707107     0.000000     0.000000     0.000000     0.000000
   24    -1.000000   180.000000     0.707107     0.000000    -0.707107     0.000000     0.000000     0.000000

 Subroutine IBZKPT returns following result:

 Found     10 irreducible k-points:

 Following reciprocal coordinates:
            Coordinates               Weight
  0.000000  0.000000  0.000000      1.000000
  0.250000  0.000000  0.000000      6.000000
  0.500000  0.000000  0.000000      3.000000
  0.250000  0.250000  0.000000     12.000000
  0.500000  0.250000  0.000000     12.000000
  0.500000  0.500000  0.000000      3.000000
  0.250000  0.250000  0.250000      8.000000
  0.500000  0.250000  0.250000     12.000000
  0.500000  0.500000  0.250000      6.000000
  0.500000  0.500000  0.500000      1.000000

 Following cartesian coordinates:
            Coordinates               Weight
  0.000000  0.000000  0.000000      1.000000
  0.038604  0.000000  0.000000      6.000000
  0.077208  0.000000  0.000000      3.000000
  0.038604  0.038604  0.000000     12.000000
  0.077208  0.038604  0.000000     12.000000
  0.077208  0.077208  0.000000      3.000000
  0.038604  0.038604  0.038604      8.000000
  0.077208  0.038604  0.038604     12.000000
  0.077208  0.077208  0.038604      6.000000
  0.077208  0.077208  0.077208      1.000000

 I would recommend the setting:
   dimension x,y,z NGX =    35 NGY =   35 NGZ =   35
 SYSTEM =  Name
 POSCAR =  Cd1 Te1

 Startparameter for this run:
   NWRITE =      2    write-flag & timer
   PREC   = normal    normal or accurate (medium, high low for compatibility)
   ISTART =      0    job   : 0-new  1-cont  2-samecut
   ICHARG =      2    charge: 1-file 2-atom 10-const
   ISPIN  =      1    spin polarized calculation?
   LNONCOLLINEAR =      F non collinear calculations
   LSORBIT =      F    spin-orbit coupling
   INIWAV =      1    electr: 0-lowe 1-rand  2-diag
   LASPH  =      F    aspherical Exc in radial PAW
   METAGGA=      F    non-selfconsistent MetaGGA calc.

 Electronic Relaxation 1
   ENCUT  =  500.0 eV  36.75 Ry    6.06 a.u.  11.81 11.81 11.81*2*pi/ulx,y,z
   ENINI  =  500.0     initial cutoff
   ENAUG  =  456.1 eV  augmentation charge cutoff
   NELM   =     60;   NELMIN=  2; NELMDL=  0     # of ELM steps
   EDIFF  = 0.1E-05   stopping-criterion for ELM
   LREAL  =      F    real-space projection
   NLSPLINE    = F    spline interpolate recip. space projectors
   LCOMPAT=      F    compatible to vasp.4.4
   GGA_COMPAT  = T    GGA compatible to vasp.4.4-vasp.4.6
   LMAXPAW     = -100 max onsite density
   LMAXMIX     =    2 max onsite mixed and CHGCAR
   VOSKOWN=      0    Vosko Wilk Nusair interpolation
   ROPT   =    0.00000   0.00000
 Ionic relaxation
   EDIFFG = -.5E-02   stopping-criterion for IOM
   NSW    =    100    number of steps for IOM
   NBLOCK =      1;   KBLOCK =    100    inner block; outer block
   IBRION =      2    ionic relax: 0-MD 1-quasi-New 2-CG
   NFREE  =      1    steps in history (QN), initial steepest desc. (CG)
   ISIF   =      2    stress and relaxation
   IWAVPR =     11    prediction:  0-non 1-charg 2-wave 3-comb
   ISYM   =      2    0-nonsym 1-usesym 2-fastsym
   LCORR  =      T    Harris-Foulkes like correction to forces

   POTIM  = 0.5000    time-step for ionic-motion
   TEIN   =    0.0    initial temperature
   TEBEG  =    0.0;   TEEND  =   0.0 temperature during run
   SMASS  =  -3.00    Nose mass-parameter (am)
   estimated Nose-frequenzy (Omega)   =  0.10E-29 period in steps =****** mass=  -0.958E-27a.u.
   SCALEE = 1.0000    scale energy and forces
   NPACO  =    256;   APACO  = 16.0  distance and # of slots for P.C.
   PSTRESS=    0.0 pullay stress

  Mass of Ions in am
   POMASS = 112.41127.60
  Ionic Valenz
   ZVAL   =  12.00  6.00
  Atomic Wigner-Seitz radii
  virtual crystal weights
   VCA    =   1.00  1.00
   NELECT =      72.0000    total number of electrons
   NUPDOWN=      -1.0000    fix difference up-down

 DOS related values:
   EMIN   =  10.00;   EMAX   =-10.00  energy-range for DOS
   EFERMI =   0.00
   ISMEAR =     0;   SIGMA  =   0.01  broadening in eV -4-tet -1-fermi 0-gaus

 Electronic relaxation 2 (details)
   IALGO  =     38    algorithm
   LDIAG  =      T    sub-space diagonalisation (order eigenvalues)
   LSUBROT=      F    optimize rotation matrix (better conditioning)
   TURBO    =      0    0=normal 1=particle mesh
   IRESTART =      0    0=no restart 2=restart with 2 vectors
   NREBOOT  =      0    no. of reboots
   NMIN     =      0    reboot dimension
   EREF     =   0.00    reference energy to select bands
   IMIX   =      4    mixing-type and parameters
     AMIX     =   0.40;   BMIX     =  1.00
     AMIX_MAG =   1.60;   BMIX_MAG =  1.00
     AMIN     =   0.01
     WC   =   100.;   INIMIX=   1;  MIXPRE=   1;  MAXMIX= -45

 Intra band minimization:
   WEIMIN = 0.0010     energy-eigenvalue tresh-hold
   EBREAK =  0.52E-08  absolut break condition
   DEPER  =   0.30     relativ break condition

   TIME   =   0.40     timestep for ELM

  volume/ion in A,a.u.               =      33.95       229.10
  Fermi-wavevector in a.u.,A,eV,Ry     =   1.051668  1.987365 15.048132  1.106006
  Thomas-Fermi vector in A             =   2.186721

 Write flags
   LWAVE  =      T    write WAVECAR
   LCHARG =      T    write CHGCAR
   LVTOT  =      F    write LOCPOT, total local potential
   LVHAR  =      F    write LOCPOT, Hartree potential only
   LELF   =      F    write electronic localiz. function (ELF)
   LORBIT =     10    0 simple, 1 ext, 2 COOP (PROOUT)

 Dipole corrections
[...]
      direct lattice vectors                 reciprocal lattice vectors
     6.475999832  0.000000000  0.000000000     0.154416310  0.000000000  0.000000000
     0.000000000  6.475999832  0.000000000     0.000000000  0.154416310  0.000000000
     0.000000000  0.000000000  6.475999832     0.000000000  0.000000000  0.154416310

  length of vectors
     6.475999832  6.475999832  6.475999832     0.154416310  0.154416310  0.154416310

 k-points in units of 2pi/SCALE and weight: Automatic mesh
   0.00000000  0.00000000  0.00000000       0.016
   0.03860408  0.00000000  0.00000000       0.094
   0.07720816  0.00000000  0.00000000       0.047
   0.03860408  0.03860408  0.00000000       0.188
   0.07720816  0.03860408  0.00000000       0.188
   0.07720816  0.07720816  0.00000000       0.047
   0.03860408  0.03860408  0.03860408       0.125
   0.07720816  0.03860408  0.03860408       0.188
   0.07720816  0.07720816  0.03860408       0.094
   0.07720816  0.07720816  0.07720816       0.016

 k-points in reciprocal lattice and weights: Automatic mesh
   0.00000000  0.00000000  0.00000000       0.016
   0.25000000  0.00000000  0.00000000       0.094
   0.50000000  0.00000000  0.00000000       0.047
   0.25000000  0.25000000  0.00000000       0.188
   0.50000000  0.25000000  0.00000000       0.188
   0.50000000  0.50000000  0.00000000       0.047
   0.25000000  0.25000000  0.25000000       0.125
   0.50000000  0.25000000  0.25000000       0.188
   0.50000000  0.50000000  0.25000000       0.094
   0.50000000  0.50000000  0.50000000       0.016

 position of ions in fractional coordinates (direct lattice)
   0.00000000  0.00000000  0.00000000
   0.00000000  0.50000000  0.50000000
   0.50000000  0.00000000  0.50000000
   0.50000000  0.50000000  0.00000000
   0.25000000  0.25000000  0.25000000
   0.75000000  0.75000000  0.25000000
   0.75000000  0.25000000  0.75000000
   0.25000000  0.75000000  0.75000000

 position of ions in cartesian coordinates  (Angst):
   0.00000000  0.00000000  0.00000000
   0.00000000  3.23799992  3.23799992
   3.23799992  0.00000000  3.23799992
   3.23799992  3.23799992  0.00000000
   1.61899996  1.61899996  1.61899996
   4.85699987  4.85699987  1.61899996
   4.85699987  1.61899996  4.85699987
   1.61899996  4.85699987  4.85699987

 k-point  1 :   0.0000 0.0000 0.0000  plane waves:    6931
 k-point  2 :   0.2500 0.0000 0.0000  plane waves:    6896
 k-point  3 :   0.5000 0.0000 0.0000  plane waves:    6920
 k-point  4 :   0.2500 0.2500 0.0000  plane waves:    6889
 k-point  5 :   0.5000 0.2500 0.0000  plane waves:    6904
 k-point  6 :   0.5000 0.5000 0.0000  plane waves:    6872
 k-point  7 :   0.2500 0.2500 0.2500  plane waves:    6899
 k-point  8 :   0.5000 0.2500 0.2500  plane waves:    6906
 k-point  9 :   0.5000 0.5000 0.2500  plane waves:    6920
 k-point 10 :   0.5000 0.5000 0.5000  plane waves:    6872

 maximum and minimum number of plane-waves per node :      6931     6872

 maximum number of plane-waves:      6931
 maximum index in each direction:
   IXMAX=   11   IYMAX=   11   IZMAX=   11
   IXMIN=  -12   IYMIN=  -12   IZMIN=  -12

 WARNING: aliasing errors must be expected set NGX to  48 to avoid them
 WARNING: aliasing errors must be expected set NGY to  48 to avoid them
 WARNING: aliasing errors must be expected set NGZ to  48 to avoid them
 aliasing errors are usually negligible using standard VASP settings
 and one can safely disregard these warnings

 serial   3D FFT for wavefunctions
 parallel 3D FFT for charge:
    minimum data exchange during FFTs selected (reduces bandwidth)

 Broyden mixing: mesh for mixing (old mesh)
   NGX = 23   NGY = 23   NGZ = 23
  (NGX  = 72   NGY  = 72   NGZ  = 72)
  gives a total of  12167 points

 initial charge density was supplied:
 charge density of overlapping atoms calculated
 number of electron      72.0000000 magnetization
 keeping initial charge density in first step

 Maximum index for augmentation-charges         1223 (set IRDMAX)

 First call to EWALD:  gamma=   0.274
 Maximum number of real-space cells 3x 3x 3
 Maximum number of reciprocal cells 3x 3x 3

 FEWALD executed in parallel

----------------------------------------- Iteration    1(   1)  ---------------------------------------

 eigenvalue-minimisations  :   960
 total energy-change (2. order) : 0.4572390E+03  (-0.3178026E+04)
 number of electron      72.0000000 magnetization
 augmentation part       72.0000000 magnetization

 Free energy of the ion-electron system (eV)
  alpha Z        PSCENC =       201.31243334
  Ewald energy   TEWEN  =     -4183.64966357
  -Hartree energ DENC   =     -2038.11829410
  -exchange      EXHF   =         0.00000000
  -V(xc)+E(xc)   XCENC  =       -90.44953710
  PAW double counting   =      5617.72092748    -5328.65891765
  entropy T*S    EENTRO =        -0.00096934
  eigenvalues    EBANDS =       213.29658763
  atomic energy  EATOM  =      6065.78646317
  free energy    TOTEN  =       457.23902985 eV

  energy without entropy =      457.23999919  energy(sigma->0) =      457.23951452

[...]

 eigenvalue-minimisations  :  1088
 total energy-change (2. order) :-0.4519250E+03  (-0.4386829E+03)
 number of electron      72.0000000 magnetization
 augmentation part       72.0000000 magnetization

[...]

 Broyden mixing:
  rms(total) = 0.11234E+01    rms(broyden)= 0.11234E+01
  rms(prec ) = 0.13498E+01
  weight for this iteration     100.00

[...]

 eigenvalues of (default mixing * dielectric matrix)
  average eigenvalue GAMMA=   2.2405
  2.2405

[...]

 eigenvalue-minimisations  :   912
 total energy-change (2. order) : 0.1646934E-05  (-0.9251203E-06)
 number of electron      71.9999741 magnetization
 augmentation part       18.3106632 magnetization

 Broyden mixing:
  rms(total) = 0.83276E-03    rms(broyden)= 0.83276E-03
  rms(prec ) = 0.84717E-03
  weight for this iteration     100.00

 eigenvalues of (default mixing * dielectric matrix)
  average eigenvalue GAMMA=   1.6042
  3.0604  2.4884  1.8717  1.8717  1.1300  1.1300  1.0410  1.0410  0.8039

[...]

----------------------------------------- Iteration    1(  15)  ---------------------------------------

 eigenvalue-minimisations  :   776
 total energy-change (2. order) :-0.7670869E-06  (-0.1709003E-06)
 number of electron      71.9999741 magnetization
 augmentation part       18.3106632 magnetization

 Free energy of the ion-electron system (eV)
  alpha Z        PSCENC =       201.31243334
  Ewald energy   TEWEN  =     -4183.64966357
  -Hartree energ DENC   =     -2012.15929263
  -exchange      EXHF   =         0.00000000
  -V(xc)+E(xc)   XCENC  =       -90.17830436
  PAW double counting   =      6992.00656604    -6701.72276616
  entropy T*S    EENTRO =        -0.00000000
  eigenvalues    EBANDS =      -290.48115506
  atomic energy  EATOM  =      6065.78646317
  free energy    TOTEN  =       -19.08571924 eV

  energy without entropy =      -19.08571924  energy(sigma->0) =      -19.08571924

 the core state eigenenergies are
   1-  1s -26513.5565  2s  -3930.7365  2p  -3525.9905  3s   -727.6095  3p   -594.8987
       3d   -387.3501  4s    -99.7923  4p    -60.8496
   2-  1s -26513.5565  2s  -3930.7365  2p  -3525.9905  3s   -727.6095  3p   -594.8987
       3d   -387.3501  4s    -99.7923  4p    -60.8496
   3-  1s -26513.5565  2s  -3930.7365  2p  -3525.9905  3s   -727.6095  3p   -594.8987
       3d   -387.3501  4s    -99.7923  4p    -60.8496
   4-  1s -26513.5565  2s  -3930.7365  2p  -3525.9905  3s   -727.6095  3p   -594.8987
       3d   -387.3501  4s    -99.7923  4p    -60.8496
   5-  1s -31612.9042  2s  -4840.4869  2p  -4343.8823  3s   -956.7062  3p   -795.3640
       3d   -551.6141  4s   -156.2164  4p   -106.2555  4d    -33.5785
   6-  1s -31612.9042  2s  -4840.4869  2p  -4343.8823  3s   -956.7062  3p   -795.3640
       3d   -551.6141  4s   -156.2164  4p   -106.2555  4d    -33.5785
   7-  1s -31612.9042  2s  -4840.4869  2p  -4343.8823  3s   -956.7062  3p   -795.3640
       3d   -551.6141  4s   -156.2164  4p   -106.2555  4d    -33.5785
   8-  1s -31612.9042  2s  -4840.4869  2p  -4343.8823  3s   -956.7062  3p   -795.3640
       3d   -551.6141  4s   -156.2164  4p   -106.2555  4d    -33.5785

 E-fermi :   2.4610     XC(G=0):  -8.5946     alpha+bet : -7.4457

 k-point     1 :       0.0000    0.0000    0.0000
  band No.  band energies     occupation
      1      -8.8182      2.00000
      2      -8.2990      2.00000
      3      -8.2990      2.00000
      4      -8.2990      2.00000
      5      -5.9267      2.00000
      6      -5.9267      2.00000
      7      -5.9267      2.00000
      8      -5.7704      2.00000
      9      -5.7704      2.00000
     10      -5.7704      2.00000
     11      -5.7619      2.00000
     12      -5.7619      2.00000
     13      -5.7619      2.00000
     14      -5.7619      2.00000
     15      -5.7619      2.00000
     16      -5.7619      2.00000
     17      -5.6648      2.00000
     18      -5.6648      2.00000
     19      -5.6340      2.00000
     20      -5.6340      2.00000
     21      -5.6340      2.00000
     22      -5.1698      2.00000
     23      -5.1698      2.00000
     24      -5.1698      2.00000
     25      -1.9499      2.00000
     26      -1.9499      2.00000
     27      -1.9499      2.00000
     28       0.4963      2.00000
     29       0.4963      2.00000
     30       0.4963      2.00000
     31       0.4963      2.00000
     32       0.4963      2.00000
     33       0.4963      2.00000
     34       2.3685      2.00000
     35       2.3685      2.00000
     36       2.3685      2.00000
     37       3.1465      0.00000
     38       4.9701      0.00000
     39       4.9701      0.00000
     40       4.9701      0.00000
     41       5.0376      0.00000
     42       5.0376      0.00000
     43       5.0376      0.00000
     44       6.9684      0.00000
     45       6.9684      0.00000
     46       6.9684      0.00000
     47       9.8357      0.00000
     48      11.2233      0.00000

[...]

 k-point    10 :       0.5000    0.5000    0.5000
  band No.  band energies     occupation
      1      -8.4200      2.00000
      2      -8.4200      2.00000
      3      -8.4200      2.00000
      4      -8.4200      2.00000
      5      -5.8631      2.00000
      6      -5.8631      2.00000
      7      -5.8631      2.00000
      8      -5.8631      2.00000
      9      -5.8631      2.00000
     10      -5.8631      2.00000
     11      -5.8631      2.00000
     12      -5.8631      2.00000
     13      -5.6557      2.00000
     14      -5.6557      2.00000
     15      -5.6557      2.00000
     16      -5.6557      2.00000
     17      -5.6557      2.00000
     18      -5.6557      2.00000
     19      -5.6557      2.00000
     20      -5.6557      2.00000
     21      -5.3101      2.00000
     22      -5.3101      2.00000
     23      -5.3101      2.00000
     24      -5.3101      2.00000
     25      -2.0692      2.00000
     26      -2.0692      2.00000
     27      -2.0692      2.00000
     28      -2.0692      2.00000
     29       1.5902      2.00000
     30       1.5902      2.00000
     31       1.5902      2.00000
     32       1.5902      2.00000
     33       1.5902      2.00000
     34       1.5902      2.00000
     35       1.5902      2.00000
     36       1.5902      2.00000
     37       4.1897      0.00000
     38       4.1897      0.00000
     39       4.1897      0.00000
     40       4.1897      0.00000
     41       7.5551      0.00000
     42       7.5551      0.00000
     43       7.5551      0.00000
     44       7.5551      0.00000
     45       7.5551      0.00000
     46       7.5551      0.00000
     47       7.5551      0.00000
     48       7.5551      0.00000

 soft charge-density along one line, spin component           1
         0         1         2         3         4         5         6         7         8         9
 total charge-density along one line

------------------------ aborting loop because EDIFF is reached ----------------------------------------

 total charge

# of ion     s       p       d       tot
  1        0.471   0.319   9.531  10.321
  2        0.471   0.319   9.531  10.321
  3        0.471   0.319   9.531  10.321
  4        0.471   0.319   9.531  10.321
  5        1.350   2.063   0.021   3.434
  6        1.350   2.063   0.021   3.434
  7        1.350   2.063   0.021   3.434
  8        1.350   2.063   0.021   3.434
tot        7.285   9.527  38.209  55.021

  FORCE on cell =-STRESS in cart. coord.  units (eV):
  Direction    XX          YY          ZZ          XY          YZ          ZX
  Alpha Z   201.31243   201.31243   201.31243
  Ewald   -1394.55196 -1394.55196 -1394.55196     0.00000     0.00000    -0.00000
  Hartree   670.71843   670.71843   670.71843    -0.00000    -0.00000    -0.00000
  E(xc)    -349.71911  -349.71911  -349.71911     0.00000    -0.00000     0.00000
  Local     -69.34579   -69.34579   -69.34579     0.00000    -0.00000    -0.00000
  n-local   107.63309   111.79505   108.29244    -2.23330    -1.94207    -0.79498
  augment    25.57806    25.57806    25.57806    -0.00000     0.00000     0.00000
  Kinetic   807.81815   813.93102   812.84382    -2.04442    -2.19575    -0.85496
  Fock        0.00000     0.00000     0.00000     0.00000     0.00000     0.00000
  Total       4.76326     4.76326     4.76326    -0.00000    -0.00000     0.00000
  in kB      28.09924    28.09924    28.09924    -0.00000    -0.00000     0.00000

 VOLUME and BASIS-vectors are now :
  energy-cutoff  :      500.00
  volume of cell :      271.59
      direct lattice vectors                 reciprocal lattice vectors
     6.475999832  0.000000000  0.000000000     0.154416310  0.000000000  0.000000000
     0.000000000  6.475999832  0.000000000     0.000000000  0.154416310  0.000000000
     0.000000000  0.000000000  6.475999832     0.000000000  0.000000000  0.154416310

  length of vectors
     6.475999832  6.475999832  6.475999832     0.154416310  0.154416310  0.154416310

 FORCES acting on ions
    electron-ion (+dipol)            ewald-force                    non-local-force                 convergence-correction
   0.845E-13 0.702E-13 -.114E-12   0.711E-14 0.000E+00 -.142E-13   -.217E-17 -.499E-17 -.260E-17   0.112E-12 0.715E-13 -.984E-13
   0.933E-13 0.663E-12 0.469E-12   0.711E-14 0.142E-13 -.142E-13   -.260E-17 -.867E-17 0.217E-17   0.129E-12 0.555E-13 -.929E-13
   0.697E-12 0.741E-13 0.645E-11   0.213E-13 0.000E+00 -.142E-13   -.260E-17 -.173E-17 -.130E-17   0.117E-12 0.680E-13 -.980E-13
   0.647E-12 0.356E-11 0.204E-11   0.213E-13 0.142E-13 -.142E-13   -.217E-17 -.499E-17 0.867E-17   0.118E-12 0.487E-13 -.770E-13
   -.867E-13 0.244E-12 -.950E-13   -.153E-13 -.890E-14 0.134E-13   0.260E-17 -.243E-16 -.867E-17   0.623E-14 -.337E-13 -.290E-13
   -.900E-13 0.188E-12 -.147E-12   -.154E-13 -.721E-14 0.134E-13   0.260E-17 0.347E-17 -.260E-16   0.249E-13 -.188E-13 -.308E-13
   -.955E-13 0.588E-12 -.700E-12   -.118E-13 -.701E-14 0.152E-13   -.191E-16 0.304E-17 -.867E-18   0.281E-13 -.367E-13 -.198E-13
   -.582E-13 0.439E-13 -.120E-12   -.140E-13 -.531E-14 0.152E-13   -.694E-17 0.308E-16 -.867E-18   0.111E-14 -.198E-13 -.219E-13
   0.119E-11 0.543E-11 0.779E-11   0.229E-15 -.153E-16 0.355E-15   -.304E-16 -.737E-17 -.295E-16   0.536E-12 0.135E-12 -.468E-12

 POSITION                                       TOTAL-FORCE (eV/Angst)
      0.00000      0.00000      0.00000        -0.000000     -0.000000     -0.000000
      0.00000      3.23800      3.23800         0.000000      0.000000     -0.000000
      3.23800      0.00000      3.23800         0.000000      0.000000     -0.000000
      3.23800      3.23800      0.00000        -0.000000     -0.000000      0.000000
      1.61900      1.61900      1.61900         0.000000     -0.000000      0.000000
      4.85700      4.85700      1.61900         0.000000     -0.000000      0.000000
      4.85700      1.61900      4.85700         0.000000     -0.000000      0.000000
      1.61900      4.85700      4.85700         0.000000     -0.000000      0.000000
    total drift:                                0.000000      0.000000      0.000000

  FREE ENERGIE OF THE ION-ELECTRON SYSTEM (eV)
  free  energy   TOTEN  =       -19.08571924 eV

  energy  without entropy=      -19.08571924  energy(sigma->0) =      -19.08571924

 reached required accuracy - stopping structural energy minimisation
 writing wavefunctions

 total charge

# of ion     s       p       d       tot
  1        0.471   0.319   9.531  10.321
  2        0.471   0.319   9.531  10.321
  3        0.471   0.319   9.531  10.321
  4        0.471   0.319   9.531  10.321
  5        1.350   2.063   0.021   3.434
  6        1.350   2.063   0.021   3.434
  7        1.350   2.063   0.021   3.434
  8        1.350   2.063   0.021   3.434
tot        7.285   9.527  38.209  55.021