 vasp.5.3.5 31Mar14 (build Apr 15 2015 10:45:18) complex

 executed on             LinuxIFC date 2016.02.16  13:22:46

 INCAR:
 POTCAR:    PAW_PBE C 08Apr2002
 POTCAR:    PAW_PBE N 08Apr2002
 POTCAR:    PAW_PBE H 15Jun2001
 POTCAR:    PAW_PBE Pb_d 06Sep2000
 POTCAR:    PAW_PBE I 08Apr2002

 POTCAR:    PAW_PBE C 08Apr2002
   VRHFIN =C: s2p2

   TITEL  = PAW_PBE C 08Apr2002
   POMASS =   12.011; ZVAL   =    4.000    mass and valenz
   ENMAX  =  400.000; ENMIN  =  300.000 eV

 POTCAR:    PAW_PBE N 08Apr2002
   VRHFIN =N: s2p3

[...]

 POTCAR:    PAW_PBE H 15Jun2001
   VRHFIN =H: ultrasoft test

   TITEL  = PAW_PBE H 15Jun2001
   POMASS =    1.000; ZVAL   =    1.000    mass and valenz
   ENMAX  =  250.000; ENMIN  =  200.000 eV

 POTCAR:    PAW_PBE Pb_d 06Sep2000
   VRHFIN =Pb:

   TITEL  = PAW_PBE Pb_d 06Sep2000
   POMASS =  207.200; ZVAL   =   14.000    mass and valenz
   ENMAX  =  237.835; ENMIN  =  178.376 eV

 POTCAR:    PAW_PBE I 08Apr2002
   VRHFIN =I : s2p5

   TITEL  = PAW_PBE I 08Apr2002
   POMASS =  126.904; ZVAL   =    7.000    mass and valenz
   ENMAX  =  175.647; ENMIN  =  131.735 eV

  PAW_PBE C 08Apr2002                   :
  PAW_PBE N 08Apr2002                   :
  PAW_PBE H 15Jun2001                   :
  PAW_PBE Pb_d 06Sep2000                :
  PAW_PBE I 08Apr2002                   :

 POSCAR: MA-Pb-I (Github)
  positions in direct lattice
  velocities in cartesian coordinates
 exchange correlation table for  LEXCH =       14
   RHO(1)=    0.500       N(1)  =     2000
   RHO(2)=  100.500       N(2)  =     4000

 ion  position               nearest neighbor table
   1  0.903  1.000  0.996-   3 1.10   5 1.10   4 1.10   2 1.48
   2  0.137  1.000  0.025-   6 1.04   7 1.04   8 1.05   1 1.48
   3  0.865  1.000  0.826-   1 1.10
   4  0.838  0.144  0.072-   1 1.10
   5  0.838  0.857  0.072-   1 1.10
   6  0.208  0.134  0.958-   2 1.04
   7  0.207  0.865  0.958-   2 1.04
   8  0.182  0.000  0.185-   2 1.05
   9  0.476  0.500  0.476-  12 3.07  10 3.15  11 3.15  11 3.15  10 3.18  12 3.23
  10  0.427  0.500  0.973-   9 3.15   9 3.18
  11  0.436  0.000  0.507-   9 3.15   9 3.15
  12  0.963  0.500  0.448-   9 3.07   9 3.23

  LATTYP: Found a simple monoclinic cell.
 ALAT       =     6.2901201248
 B/A-ratio  =     0.9974197462
 C/A-ratio  =     1.4105278383
 COS(beta)  =    -0.7044835581

  Lattice vectors:

 A1 = (  -6.2901201248,   0.0000000000,   0.0000000000)
 A2 = (  -0.0000776940,  -6.2738900180,   0.0000000000)
 A3 = (   6.2504525538,  -0.0001537931,   6.2969150416)

Analysis of symmetry for initial positions (statically):
 Subroutine PRICEL returns:
 Original cell was already a primitive cell.

 Routine SETGRP: Setting up the symmetry group for a
 simple monoclinic supercell.

 Subroutine GETGRP returns: Found  1 space group operations
 (whereof  1 operations were pure point group operations)
 out of a pool of  4 trial point group operations.

The static configuration has the point symmetry C_1 .

Analysis of symmetry for dynamics (positions and initial velocities):
 Subroutine PRICEL returns:
 Original cell was already a primitive cell.

 Routine SETGRP: Setting up the symmetry group for a
 simple monoclinic supercell.

 Subroutine GETGRP returns: Found  1 space group operations
 (whereof  1 operations were pure point group operations)
 out of a pool of  4 trial point group operations.

The dynamic configuration has the point symmetry C_1 .

 KPOINTS: Automatically generated mesh
  k-points in reciprocal lattice
Space group operators:
 irot       det(A)        alpha          n_x          n_y          n_z        tau_x        tau_y        tau_z
    1     1.000000     0.000000     1.000000     0.000000     0.000000     0.000000     0.000000     0.000000

 I would recommend the setting:
   dimension x,y,z NGX =    46 NGY =   46 NGZ =   46
 SYSTEM =  Name
 POSCAR =  MA-Pb-I (Github)

 Startparameter for this run:
   NWRITE =      2    write-flag & timer
   PREC   = accura    normal or accurate (medium, high low for compatibility)
   ISTART =      0    job   : 0-new  1-cont  2-samecut
   ICHARG =     11    charge: 1-file 2-atom 10-const
   ISPIN  =      1    spin polarized calculation?
   LNONCOLLINEAR =      F non collinear calculations
   LSORBIT =      F    spin-orbit coupling
   INIWAV =      1    electr: 0-lowe 1-rand  2-diag
   LASPH  =      F    aspherical Exc in radial PAW
   METAGGA=      F    non-selfconsistent MetaGGA calc.

 Electronic Relaxation 1
   ENCUT  =  500.0 eV  36.75 Ry    6.06 a.u.  11.47 11.44 11.48*2*pi/ulx,y,z
   ENINI  =  500.0     initial cutoff
   ENAUG  =  644.9 eV  augmentation charge cutoff
   NELM   =     60;   NELMIN=  2; NELMDL=  0     # of ELM steps
   EDIFF  = 0.1E-05   stopping-criterion for ELM
   LREAL  =      F    real-space projection
   NLSPLINE    = F    spline interpolate recip. space projectors
   LCOMPAT=      F    compatible to vasp.4.4
   GGA_COMPAT  = T    GGA compatible to vasp.4.4-vasp.4.6
   LMAXPAW     = -100 max onsite density
   LMAXMIX     =    2 max onsite mixed and CHGCAR
   VOSKOWN=      0    Vosko Wilk Nusair interpolation
   ROPT   =    0.00000   0.00000   0.00000   0.00000
   ROPT   =    0.00000
 Ionic relaxation
   EDIFFG = -.5E-02   stopping-criterion for IOM
   NSW    =      1    number of steps for IOM
   NBLOCK =      1;   KBLOCK =      1    inner block; outer block
   IBRION =      2    ionic relax: 0-MD 1-quasi-New 2-CG
   NFREE  =      1    steps in history (QN), initial steepest desc. (CG)
   ISIF   =      3    stress and relaxation
   IWAVPR =     11    prediction:  0-non 1-charg 2-wave 3-comb
   ISYM   =      2    0-nonsym 1-usesym 2-fastsym
   LCORR  =      T    Harris-Foulkes like correction to forces

   POTIM  = 0.5000    time-step for ionic-motion
   TEIN   =    0.0    initial temperature
   TEBEG  =    0.0;   TEEND  =   0.0 temperature during run
   SMASS  =  -3.00    Nose mass-parameter (am)
   estimated Nose-frequenzy (Omega)   =  0.10E-29 period in steps =****** mass=  -0.904E-27a.u.
   SCALEE = 1.0000    scale energy and forces
   NPACO  =    256;   APACO  = 16.0  distance and # of slots for P.C.
   PSTRESS=    0.0 pullay stress

  Mass of Ions in am
   POMASS =  12.01 14.00  1.00207.20126.90
  Ionic Valenz
   ZVAL   =   4.00  5.00  1.00 14.00  7.00
  Atomic Wigner-Seitz radii
  virtual crystal weights
   VCA    =   1.00  1.00  1.00  1.00  1.00
   NELECT =      50.0000    total number of electrons
   NUPDOWN=      -1.0000    fix difference up-down

 DOS related values:
   EMIN   =  10.00;   EMAX   =-10.00  energy-range for DOS
   EFERMI =   0.00
   ISMEAR =     0;   SIGMA  =   0.01  broadening in eV -4-tet -1-fermi 0-gaus

 Electronic relaxation 2 (details)
   IALGO  =     38    algorithm
   LDIAG  =      T    sub-space diagonalisation (order eigenvalues)
   LSUBROT=      F    optimize rotation matrix (better conditioning)
   TURBO    =      0    0=normal 1=particle mesh
   IRESTART =      0    0=no restart 2=restart with 2 vectors
   NREBOOT  =      0    no. of reboots
   NMIN     =      0    reboot dimension
   EREF     =   0.00    reference energy to select bands
   IMIX   =      4    mixing-type and parameters
     AMIX     =   0.40;   BMIX     =  1.00
     AMIX_MAG =   1.60;   BMIX_MAG =  1.00
     AMIN     =   0.01
     WC   =   100.;   INIMIX=   1;  MIXPRE=   1;  MAXMIX= -45

 Intra band minimization:
   WEIMIN = 0.0010     energy-eigenvalue tresh-hold
   EBREAK =  0.78E-08  absolut break condition
   DEPER  =   0.30     relativ break condition

   TIME   =   0.40     timestep for ELM

  volume/ion in A,a.u.               =      20.71       139.75
  Fermi-wavevector in a.u.,A,eV,Ry     =   0.959306  1.812825 12.520994  0.920267
  Thomas-Fermi vector in A             =   2.088490

 Write flags
   LWAVE  =      T    write WAVECAR
   LCHARG =      T    write CHGCAR
   LVTOT  =      F    write LOCPOT, total local potential
   LVHAR  =      F    write LOCPOT, Hartree potential only
   LELF   =      F    write electronic localiz. function (ELF)
   LORBIT =     10    0 simple, 1 ext, 2 COOP (PROOUT)

 Dipole corrections
   LMONO  =      F    monopole corrections only (constant potential shift)
   LDIPOL =      F    correct potential (dipole corrections)
   IDIPOL =      0    1-x, 2-y, 3-z, 4-all directions
   EPSILON=  1.0000000 bulk dielectric constant

 Core level calculations are selected ICORELEVEL =  1
 Exchange correlation treatment:
   GGA     =    PS    GGA type
   VOSKOWN=      0    Vosko Wilk Nusair interpolation
   LHFCALC =     F    Hartree Fock is set to
   LHFONE  =     F    Hartree Fock one center treatment
   AEXX    =    0.0000 exact exchange contribution

 Linear response parameters
   LEPSILON=     F    determine dielectric tensor
   LRPA    =     F    only Hartree local field effects (RPA)
   LNABLA  =     F    use nabla operator in PAW spheres
   LVEL    =     F    velocity operator in full k-point grid
   LINTERFAST=   F  fast interpolation
   KINTER  =     0    interpolate to denser k-point grid
   CSHIFT  =0.1000    complex shift for real part using Kramers Kronig
   OMEGAMAX=  -1.0    maximum frequency
   DEG_THRESHOLD= 0.2000000E-02 threshold for treating states as degnerate
   RTIME   =    0.100 relaxation time in fs

 Orbital magnetization related:
   ORBITALMAG=     F  switch on orbital magnetization
   LCHIMAG   =     F  perturbation theory with respect to B field
   DQ        =  0.001000  dq finite difference perturbation B field

 conjugate gradient relaxation of ions
 charge density and potential remain constant during run
 non-spin polarized calculation
 Variant of blocked Davidson
 Davidson routine will perform the subspace rotation
 perform sub-space diagonalisation
    after iterative eigenvector-optimisation
 no mixing
 using additional bands            7
 reciprocal scheme for non local part
 use partial core corrections
 calculate Harris-corrections to forces
   (improved forces if not selfconsistent)
 use gradient corrections
 WARNING: stress and forces are not correct
  (second derivative of E(xc) not defined)
 use of overlap-Matrix (Vanderbilt PP)
 Gauss-broadening in eV      SIGMA  =   0.01

  energy-cutoff  :      500.00
  volume of cell :      248.50
      direct lattice vectors                 reciprocal lattice vectors
     6.290120125  0.000000000  0.000000000     0.158979476 -0.000001969  0.001001495
     0.000077694  6.273890018  0.000000000     0.000000000  0.159390744  0.000003893
    -0.039667571 -0.000153793  6.296915042     0.000000000  0.000000000  0.158807923

  length of vectors
     6.290120125  6.273890018  6.297039986     0.158982630  0.159390744  0.158807923

 k-points in units of 2pi/SCALE and weight: Automatically generated mesh
   0.00000000  0.00000000  0.00000000       0.005
   0.02649658 -0.00000033  0.00016692       0.009
   0.05299316 -0.00000066  0.00033383       0.009
   0.07948974 -0.00000098  0.00050075       0.005
   0.00000000  0.02656512  0.00000065       0.009
   0.02649658  0.02656480  0.00016756       0.009
   0.05299316  0.02656447  0.00033448       0.009
   0.07948974  0.02656414  0.00050140       0.009
  -0.05299316  0.02656578 -0.00033318       0.009
  -0.02649658  0.02656545 -0.00016627       0.009
[...]
 k-point ** :  -0.3333 0.1667 0.5000  plane waves:    6302
 k-point ** :  -0.1667 0.1667 0.5000  plane waves:    6305
 k-point ** :   0.0000 0.3333 0.5000  plane waves:    6298
 k-point ** :   0.1667 0.3333 0.5000  plane waves:    6304
 k-point ** :   0.3333 0.3333 0.5000  plane waves:    6291
 k-point ** :   0.5000 0.3333 0.5000  plane waves:    6270
 k-point ** :  -0.3333 0.3333 0.5000  plane waves:    6293
 k-point ** :  -0.1667 0.3333 0.5000  plane waves:    6304
 k-point ** :   0.0000 0.5000 0.5000  plane waves:    6276
 k-point ** :   0.1667 0.5000 0.5000  plane waves:    6300
 k-point ** :   0.3333 0.5000 0.5000  plane waves:    6282
 k-point ** :   0.5000 0.5000 0.5000  plane waves:    6272
 k-point ** :   0.0000 0.0000 0.0000  plane waves:    6329
 k-point ** :   0.0000 0.0050 0.0000  plane waves:    6333
 k-point ** :   0.0000 0.0100 0.0000  plane waves:    6337
 k-point ** :   0.0000 0.0150 0.0000  plane waves:    6335
 k-point ** :   0.0000 0.0200 0.0000  plane waves:    6331
 k-point ** :   0.0000 0.0250 0.0000  plane waves:    6329
 k-point ** :   0.0000 0.0300 0.0000  plane waves:    6327
 k-point ** :   0.0000 0.0350 0.0000  plane waves:    6327
 k-point ** :   0.0000 0.0400 0.0000  plane waves:    6329
 k-point ** :   0.0000 0.0450 0.0000  plane waves:    6325
 k-point ** :   0.0000 0.0500 0.0000  plane waves:    6325
 k-point ** :   0.0000 0.0550 0.0000  plane waves:    6328
 k-point ** :   0.0000 0.0600 0.0000  plane waves:    6327
 k-point ** :   0.0000 0.0650 0.0000  plane waves:    6327
 k-point ** :   0.0000 0.0700 0.0000  plane waves:    6325
 k-point ** :   0.0000 0.0750 0.0000  plane waves:    6325
 k-point ** :   0.0000 0.0800 0.0000  plane waves:    6325
 k-point ** :   0.0000 0.0850 0.0000  plane waves:    6325
 k-point ** :   0.0000 0.0900 0.0000  plane waves:    6328
 k-point ** :   0.0000 0.0950 0.0000  plane waves:    6327
 k-point ** :   0.0000 0.1000 0.0000  plane waves:    6321
 k-point ** :   0.0000 0.1050 0.0000  plane waves:    6321
 k-point ** :   0.0000 0.1100 0.0000  plane waves:    6317
 k-point ** :   0.0000 0.1150 0.0000  plane waves:    6315
 k-point ** :   0.0000 0.1200 0.0000  plane waves:    6314
 k-point ** :   0.0000 0.1250 0.0000  plane waves:    6315
 k-point ** :   0.0000 0.1300 0.0000  plane waves:    6313
 k-point ** :   0.0000 0.1350 0.0000  plane waves:    6313
 k-point ** :   0.0000 0.1400 0.0000  plane waves:    6319
 k-point ** :   0.0000 0.1450 0.0000  plane waves:    6317
 k-point ** :   0.0000 0.1500 0.0000  plane waves:    6317
 k-point ** :   0.0000 0.1550 0.0000  plane waves:    6323
 k-point ** :   0.0000 0.1600 0.0000  plane waves:    6325
 k-point ** :   0.0000 0.1650 0.0000  plane waves:    6327
 k-point ** :   0.0000 0.1700 0.0000  plane waves:    6329
 k-point ** :   0.0000 0.1750 0.0000  plane waves:    6331
 k-point ** :   0.0000 0.1800 0.0000  plane waves:    6334
 k-point ** :   0.0000 0.1850 0.0000  plane waves:    6335
 k-point ** :   0.0000 0.1900 0.0000  plane waves:    6333
 k-point ** :   0.0000 0.1950 0.0000  plane waves:    6333
 k-point ** :   0.0000 0.2000 0.0000  plane waves:    6329
 k-point ** :   0.0000 0.2050 0.0000  plane waves:    6331
 k-point ** :   0.0000 0.2100 0.0000  plane waves:    6329
 k-point ** :   0.0000 0.2150 0.0000  plane waves:    6331
 k-point ** :   0.0000 0.2200 0.0000  plane waves:    6327
 k-point ** :   0.0000 0.2250 0.0000  plane waves:    6321
 k-point ** :   0.0000 0.2300 0.0000  plane waves:    6322
[...]
 k-point ** :   0.0536 0.5000 0.0536  plane waves:    6345
 k-point ** :   0.0500 0.5000 0.0500  plane waves:    6350
 k-point ** :   0.0464 0.5000 0.0464  plane waves:    6348
 k-point ** :   0.0429 0.5000 0.0429  plane waves:    6348
 k-point ** :   0.0393 0.5000 0.0393  plane waves:    6350
 k-point ** :   0.0357 0.5000 0.0357  plane waves:    6352
 k-point ** :   0.0321 0.5000 0.0321  plane waves:    6354
 k-point ** :   0.0286 0.5000 0.0286  plane waves:    6356
 k-point ** :   0.0250 0.5000 0.0250  plane waves:    6360
 k-point ** :   0.0214 0.5000 0.0214  plane waves:    6360
 k-point ** :   0.0179 0.5000 0.0179  plane waves:    6366
 k-point ** :   0.0143 0.5000 0.0143  plane waves:    6364
 k-point ** :   0.0107 0.5000 0.0107  plane waves:    6362
 k-point ** :   0.0071 0.5000 0.0071  plane waves:    6366
 k-point ** :   0.0036 0.5000 0.0036  plane waves:    6362

 maximum and minimum number of plane-waves per node :      1615     1547

 maximum number of plane-waves:      6366
 maximum index in each direction:
   IXMAX=   11   IYMAX=   11   IZMAX=   11
   IXMIN=  -11   IYMIN=  -11   IZMIN=  -11

 NGX is ok and might be reduce to  46
 NGY is ok and might be reduce to  46
 NGZ is ok and might be reduce to  46

 parallel 3D FFT for wavefunctions:
    minimum data exchange during FFTs selected (reduces bandwidth)
 parallel 3D FFT for charge:
    minimum data exchange during FFTs selected (reduces bandwidth)

 initial charge density was supplied:
 number of electron      49.9999995 magnetization
 keeping initial charge density in first step

 Maximum index for augmentation-charges         1654 (set IRDMAX)

 First call to EWALD:  gamma=   0.282
 Maximum number of real-space cells 3x 3x 3
 Maximum number of reciprocal cells 3x 3x 3

 FEWALD executed in parallel

----------------------------------------- Iteration    1(   1)  ---------------------------------------

 eigenvalue-minimisations  : 48896
 total energy-change (2. order) : 0.3560288E+03  (-0.1998960E+04)
 number of electron      49.9999995 magnetization
 augmentation part       49.9999995 magnetization

 Free energy of the ion-electron system (eV)
  alpha Z        PSCENC =        46.46595848
  Ewald energy   TEWEN  =     -1941.32201603
  -Hartree energ DENC   =     -1049.80577588
  -exchange      EXHF   =         0.00000000
  -V(xc)+E(xc)   XCENC  =        52.10830404
  PAW double counting   =      2308.48258500    -2210.77737395
  entropy T*S    EENTRO =        -0.00017033
  eigenvalues    EBANDS =        57.27909748
  atomic energy  EATOM  =      3093.59820730
  free energy    TOTEN  =       356.02881610 eV

  energy without entropy =      356.02898644  energy(sigma->0) =      356.02890127

[...]

 eigenvalue-minimisations  : 61848
 total energy-change (2. order) :-0.3686671E+03  (-0.3560009E+03)
 number of electron      49.9999995 magnetization
 augmentation part       49.9999995 magnetization

[...]

----------------------------------------- Iteration    1(   8)  ---------------------------------------

 eigenvalue-minimisations  : 51544
 total energy-change (2. order) :-0.3330351E-06  (-0.3330668E-06)
 number of electron      49.9999995 magnetization
 augmentation part       49.9999995 magnetization

 Free energy of the ion-electron system (eV)
  alpha Z        PSCENC =        46.46595848
  Ewald energy   TEWEN  =     -1941.32201603
  -Hartree energ DENC   =     -1049.80577588
  -exchange      EXHF   =         0.00000000
  -V(xc)+E(xc)   XCENC  =        52.10830404
  PAW double counting   =      2308.48258500    -2210.77737395
  entropy T*S    EENTRO =        -0.00000000
  eigenvalues    EBANDS =      -351.26600237
  atomic energy  EATOM  =      3093.59820730
  free energy    TOTEN  =       -52.51611341 eV

  energy without entropy =      -52.51611341  energy(sigma->0) =      -52.51611341

 the core state eigenenergies are
   1-  1s   -271.7328
   2-  1s   -388.3486
   3-
   4-
   5-
   6-
   7-
   8-
   9-  1s -88086.5972  2s -15748.0473  2p -13502.8153  3s  -3776.2374  3p  -3132.7743
       3d  -2477.8327  4s   -850.6815  4p   -639.8798  4d   -396.2597  4f   -127.2825
       5s   -138.3178  5p    -79.9743
  10-  1s -32970.2330  2s  -5088.2391  2p  -4565.6864  3s  -1021.7050  3p   -852.4535
       3d   -599.2106  4s   -173.6821  4p   -120.6335  4d    -43.3072
  11-  1s -32970.1708  2s  -5088.1767  2p  -4565.6240  3s  -1021.6422  3p   -852.3907
       3d   -599.1479  4s   -173.6186  4p   -120.5698  4d    -43.2432
  12-  1s -32969.9157  2s  -5087.9159  2p  -4565.3637  3s  -1021.3721  3p   -852.1207
       3d   -598.8789  4s   -173.3295  4p   -120.2782  4d    -42.9444

 E-fermi :   1.5005     XC(G=0):  -7.7767     alpha+bet : -7.1939

 k-point     1 :       0.0000    0.0000    0.0000
  band No.  band energies     occupation
      1     -18.2351      2.00000
      2     -15.3704      2.00000
      3     -15.3480      2.00000
      4     -15.3060      2.00000
      5     -15.2893      2.00000
      6     -15.2854      2.00000
      7     -11.4119      2.00000
      8     -10.9592      2.00000
      9     -10.2759      2.00000
     10      -9.9951      2.00000
     11      -7.9497      2.00000
     12      -7.7846      2.00000
     13      -5.9650      2.00000
     14      -5.4162      2.00000
     15      -3.6408      2.00000
     16      -3.6267      2.00000
     17      -2.1713      2.00000
     18      -2.1710      2.00000
     19      -2.0161      2.00000
     20      -0.0791      2.00000
     21      -0.0439      2.00000
     22       0.0393      2.00000
     23       0.1691      2.00000
     24       0.4334      2.00000
     25       0.4450      2.00000
     26       4.9693      0.00000
     27       5.9144      0.00000
     28       6.0677      0.00000
     29       6.3222      0.00000
     30       6.4258      0.00000
     31       6.4731      0.00000
     32       7.1597      0.00000

[...]

 k-point   764 :       0.0036    0.5000    0.0036
  band No.  band energies     occupation
      1     -18.2340      2.00000
      2     -15.3631      2.00000
      3     -15.3425      2.00000
      4     -15.3067      2.00000
      5     -15.2893      2.00000
      6     -15.2862      2.00000
      7     -11.3989      2.00000
      8     -10.7736      2.00000
      9     -10.4870      2.00000
     10     -10.0543      2.00000
     11      -7.8598      2.00000
     12      -7.7948      2.00000
     13      -5.9888      2.00000
     14      -5.9846      2.00000
     15      -3.6798      2.00000
     16      -3.6307      2.00000
     17      -2.0575      2.00000
     18      -1.8774      2.00000
     19      -0.6331      2.00000
     20      -0.3535      2.00000
     21      -0.1858      2.00000
     22       0.1462      2.00000
     23       0.1723      2.00000
     24       0.4177      2.00000
     25       0.5564      2.00000
     26       3.7422      0.00000
     27       5.9792      0.00000
     28       6.2060      0.00000
     29       6.4561      0.00000
     30       6.7926      0.00000
     31       6.9147      0.00000
     32       7.4075      0.00000

 soft charge-density along one line, spin component           1
         0         1         2         3         4         5         6         7         8         9
 total charge-density along one line

------------------------ aborting loop because EDIFF is reached ----------------------------------------

 total charge

# of ion     s       p       d       tot
  1        0.837   1.788   0.000   2.625
  2        1.227   2.814   0.000   4.042
  3        0.627   0.045   0.000   0.672
  4        0.626   0.046   0.000   0.672
  5        0.626   0.046   0.000   0.672
  6        0.590   0.077   0.000   0.668
  7        0.590   0.077   0.000   0.668
  8        0.586   0.077   0.000   0.664
  9        1.462   0.518   9.837  11.817
 10        1.500   2.796   0.009   4.306
 11        1.500   2.797   0.009   4.307
 12        1.502   2.789   0.008   4.299
tot       11.675  13.872   9.863  35.410

  FORCE on cell =-STRESS in cart. coord.  units (eV):
  Direction    XX          YY          ZZ          XY          YZ          ZX
  Alpha Z    46.46596    46.46596    46.46596
  Ewald    -631.85511  -642.25523  -667.21442    -0.07437    -0.09326    21.50540
  Hartree   357.38721   358.98989   343.39864    -0.05000    -0.05785    12.86725
  E(xc)    -199.30058  -199.32067  -199.36330    -0.00020    -0.00000     0.04886
  Local    -618.77814  -606.46746  -567.23918     0.12610     0.14562   -33.92038
  n-local   458.29663   455.03236   454.97234    -0.00157    -0.00009     0.32639
  augment    12.99350    12.99043    12.87574    -0.00018     0.00007     0.03355
  Kinetic   586.53901   586.60239   588.44624     0.00136     0.00433    -0.93213
  Fock        0.00000     0.00000     0.00000     0.00000     0.00000     0.00000
  Total      11.74847    12.03767    12.34202     0.00113    -0.00119    -0.07107
  in kB      75.74748    77.61208    79.57435     0.00726    -0.00765    -0.45819

 VOLUME and BASIS-vectors are now :
  energy-cutoff  :      500.00
  volume of cell :      248.50
      direct lattice vectors                 reciprocal lattice vectors
     6.290120125  0.000000000  0.000000000     0.158979476 -0.000001969  0.001001495
     0.000077694  6.273890018  0.000000000     0.000000000  0.159390744  0.000003893
    -0.039667571 -0.000153793  6.296915042     0.000000000  0.000000000  0.158807923

  length of vectors
     6.290120125  6.273890018  6.297039986     0.158982630  0.159390744  0.158807923

 FORCES acting on ions
    electron-ion (+dipol)            ewald-force                    non-local-force                 convergence-correction
   0.895E+02 -.821E-01 0.171E+02   -.969E+02 0.863E-01 -.179E+02   0.782E+01 -.356E-02 0.884E+00   -.309E+00 0.251E-03 -.458E-01
   -.425E+02 -.784E-02 0.334E+01   0.412E+02 0.321E-02 -.333E+01   0.104E+01 0.182E-02 -.432E-02   0.215E+00 0.131E-03 0.909E-03
   0.172E+02 0.541E-01 0.497E+02   -.184E+02 -.616E-01 -.550E+02   0.138E+01 0.798E-02 0.561E+01   -.538E-01 -.168E-03 -.142E+00
   0.253E+02 -.391E+02 -.177E+02   -.275E+02 0.435E+02 0.200E+02   0.228E+01 -.469E+01 -.247E+01   -.795E-01 0.115E+00 0.559E-01
   0.254E+02 0.390E+02 -.178E+02   -.275E+02 -.434E+02 0.202E+02   0.229E+01 0.468E+01 -.248E+01   -.797E-01 -.115E+00 0.563E-01
   -.272E+02 -.493E+02 0.272E+02   0.300E+02 0.546E+02 -.298E+02   -.302E+01 -.565E+01 0.281E+01   0.111E+00 0.175E+00 -.919E-01
   -.271E+02 0.494E+02 0.270E+02   0.299E+02 -.546E+02 -.296E+02   -.301E+01 0.566E+01 0.279E+01   0.110E+00 -.176E+00 -.914E-01
   -.145E+02 -.755E-01 -.587E+02   0.162E+02 0.820E-01 0.648E+02   -.184E+01 -.694E-02 -.660E+01   0.694E-01 0.265E-03 0.208E+00
   -.315E+02 0.636E-01 -.103E+02   0.304E+02 -.626E-01 0.101E+02   0.990E+00 -.707E-03 0.268E+00   0.579E-01 -.312E-03 -.107E-01
   -.110E+02 0.715E-01 0.414E+01   0.110E+02 -.738E-01 -.408E+01   -.369E-01 0.252E-02 -.595E-01   0.663E-01 -.127E-03 0.106E-02
   -.129E+02 -.220E-01 -.173E+02   0.128E+02 0.215E-01 0.179E+02   -.382E-01 0.386E-03 -.585E+00   0.642E-01 0.110E-03 0.751E-02
   0.169E+01 0.307E-01 -.695E+01   -.112E+01 -.291E-01 0.679E+01   -.516E+00 -.140E-02 0.134E+00   -.530E-01 -.198E-03 0.130E-01
   -.748E+01 0.132E-02 -.275E+00   -.124E-13 0.122E-14 -.444E-14   0.733E+01 -.134E-02 0.311E+00   0.119E+00 -.351E-04 -.394E-01

 POSITION                                       TOTAL-FORCE (eV/Angst)
      5.63915      6.27350      6.27384         0.104778      0.000921      0.010509
      0.85821      6.27280      0.15665        -0.015148     -0.002671      0.004862
      5.40518      6.27196      5.19958         0.061704      0.000335      0.226886
      5.26698      0.90190      0.45292         0.091313     -0.190816     -0.104568
      5.26573      5.37368      0.45579         0.091409      0.189750     -0.104902
      1.26776      0.84227      6.03329        -0.124265     -0.226312      0.122681
      1.26657      5.42716      6.03557        -0.124497      0.228873      0.122894
      1.13753     -0.00001      1.16715        -0.078202     -0.000155     -0.260244
      2.97634      3.13707      2.99511        -0.000308      0.000005     -0.000177
      2.64610      3.13606      6.12444        -0.007745      0.000108     -0.002060
      2.72152      0.00020      3.18965        -0.006959     -0.000000     -0.006028
      6.03902      3.13830      2.81942         0.007919     -0.000038     -0.009852
    total drift:                               -0.032038     -0.000057     -0.002981

  FREE ENERGIE OF THE ION-ELECTRON SYSTEM (eV)
  free  energy   TOTEN  =       -52.51611341 eV

  energy  without entropy=      -52.51611341  energy(sigma->0) =      -52.51611341

 writing wavefunctions

 total charge

# of ion     s       p       d       tot
  1        0.837   1.788   0.000   2.625
  2        1.227   2.814   0.000   4.042
  3        0.627   0.045   0.000   0.672
  4        0.626   0.046   0.000   0.672
  5        0.626   0.046   0.000   0.672
  6        0.590   0.077   0.000   0.668
  7        0.590   0.077   0.000   0.668
  8        0.586   0.077   0.000   0.664
  9        1.462   0.518   9.837  11.817
 10        1.500   2.796   0.009   4.306
 11        1.500   2.797   0.009   4.307
 12        1.502   2.789   0.008   4.299
tot       11.675  13.872   9.863  35.410