 vasp.5.4.1 24Jun15 (build Nov 12 2015 13:14:48) complex

 executed on             IFC_2016 date 2016.01.04  17:00:03

 INCAR:
 POTCAR:    PAW_PBE Cd 06Sep2000
 POTCAR:    PAW_PBE Te 08Apr2002

 POTCAR:    PAW_PBE Cd 06Sep2000
   VRHFIN =Cd : s2 d10

   TITEL  = PAW_PBE Cd 06Sep2000
   POMASS =  112.411; ZVAL   =   12.000    mass and valenz
   ENMAX  =  274.336; ENMIN  =  205.752 eV

 POTCAR:    PAW_PBE Te 08Apr2002
   VRHFIN =Te: s2p4

   TITEL  = PAW_PBE Te 08Apr2002
   POMASS =  127.600; ZVAL   =    6.000    mass and valenz
   ENMAX  =  174.982; ENMIN  =  131.236 eV

  PAW_PBE Cd 06Sep2000                  :
  PAW_PBE Te 08Apr2002                  :

 POSCAR: CdTe (ICSD, 295K, Rabadanov 2001)
  positions in direct lattice
  velocities in cartesian coordinates
 exchange correlation table for  LEXCH =       14
   RHO(1)=    0.500       N(1)  =     2000
   RHO(2)=  100.500       N(2)  =     4000

 ion  position               nearest neighbor table
   1  0.000  0.000  0.000-   2 2.81   2 2.81   2 2.81   2 2.81
   2  0.250  0.250  0.250-   1 2.81   1 2.81   1 2.81   1 2.81

  LATTYP: Found a face centered cubic cell.
 ALAT       =     6.4827000000

  Lattice vectors:

 A1 = (   3.2413500000,   3.2413500000,   0.0000000000)
 A2 = (   3.2413500000,   0.0000000000,  -3.2413500000)
 A3 = (   0.0000000000,   3.2413500000,  -3.2413500000)

Analysis of symmetry for initial positions (statically):
 Subroutine PRICEL returns:
 Original cell was already a primitive cell.

 Routine SETGRP: Setting up the symmetry group for a
 face centered cubic supercell.

 Subroutine GETGRP returns: Found 24 space group operations
 (whereof 24 operations were pure point group operations)
 out of a pool of 48 trial point group operations.

The static configuration has the point symmetry T_d .

Analysis of symmetry for dynamics (positions and initial velocities):
 Subroutine PRICEL returns:
 Original cell was already a primitive cell.

 Routine SETGRP: Setting up the symmetry group for a
 face centered cubic supercell.

 Subroutine GETGRP returns: Found 24 space group operations
 (whereof 24 operations were pure point group operations)
 out of a pool of 48 trial point group operations.

The dynamic configuration has the point symmetry T_d .

 Subroutine INISYM returns: Found 24 space group operations
 (whereof 24 operations are pure point group operations),
 and found     1 'primitive' translations

 KPOINTS: Automatically generated mesh
  k-points in reciprocal lattice
Space group operators:
 irot       det(A)        alpha          n_x          n_y          n_z        tau_x        tau_y        tau_z
    1     1.000000     0.000000     1.000000     0.000000     0.000000     0.000000     0.000000     0.000000
    2     1.000000   120.000000    -0.577350    -0.577350     0.577350     0.000000     0.000000     0.000000
    3     1.000000   120.000000     0.577350     0.577350    -0.577350     0.000000     0.000000     0.000000
    4    -1.000000    90.000000    -1.000000     0.000000     0.000000     0.000000     0.000000     0.000000
    5    -1.000000   180.000000     0.707107     0.707107     0.000000     0.000000     0.000000     0.000000
    6    -1.000000    90.000000     0.000000     1.000000     0.000000     0.000000     0.000000     0.000000
    7     1.000000   180.000000     1.000000     0.000000     0.000000     0.000000     0.000000     0.000000
    8     1.000000   120.000000     0.577350     0.577350     0.577350     0.000000     0.000000     0.000000
    9     1.000000   120.000000    -0.577350     0.577350     0.577350     0.000000     0.000000     0.000000
   10    -1.000000    90.000000     1.000000     0.000000     0.000000     0.000000     0.000000     0.000000
   11    -1.000000    90.000000     0.000000     0.000000     1.000000     0.000000     0.000000     0.000000
   12    -1.000000   180.000000     0.707107     0.000000    -0.707107     0.000000     0.000000     0.000000
   13     1.000000   120.000000     0.577350    -0.577350    -0.577350     0.000000     0.000000     0.000000
   14     1.000000   120.000000     0.577350    -0.577350     0.577350     0.000000     0.000000     0.000000
   15     1.000000   180.000000     0.000000     0.000000     1.000000     0.000000     0.000000     0.000000
   16    -1.000000    90.000000     0.000000    -1.000000     0.000000     0.000000     0.000000     0.000000
   17    -1.000000   180.000000     0.000000    -0.707107     0.707107     0.000000     0.000000     0.000000
   18    -1.000000    90.000000     0.000000     0.000000    -1.000000     0.000000     0.000000     0.000000
   19     1.000000   120.000000    -0.577350    -0.577350    -0.577350     0.000000     0.000000     0.000000
   20     1.000000   180.000000     0.000000     1.000000     0.000000     0.000000     0.000000     0.000000
   21     1.000000   120.000000    -0.577350     0.577350    -0.577350     0.000000     0.000000     0.000000
   22    -1.000000   180.000000     0.707107    -0.707107     0.000000     0.000000     0.000000     0.000000
   23    -1.000000   180.000000     0.000000     0.707107     0.707107     0.000000     0.000000     0.000000
   24    -1.000000   180.000000     0.707107     0.000000     0.707107     0.000000     0.000000     0.000000

 I would recommend the setting:
   dimension x,y,z NGX =    33 NGY =   33 NGZ =   33
 SYSTEM =  Name
 POSCAR =  CdTe (ICSD, 295K, Rabadanov 2001)

 Startparameter for this run:
   NWRITE =      2    write-flag & timer
   PREC   = accura    normal or accurate (medium, high low for compatibility)
   ISTART =      1    job   : 0-new  1-cont  2-samecut
   ICHARG =      0    charge: 1-file 2-atom 10-const
   ISPIN  =      1    spin polarized calculation?
   LNONCOLLINEAR =      F non collinear calculations
   LSORBIT =      F    spin-orbit coupling
   INIWAV =      1    electr: 0-lowe 1-rand  2-diag
   LASPH  =      F    aspherical Exc in radial PAW
   METAGGA=      F    non-selfconsistent MetaGGA calc.

 Electronic Relaxation 1
   ENCUT  =  500.0 eV  36.75 Ry    6.06 a.u.   8.36  8.36  8.36*2*pi/ulx,y,z
   ENINI  =  500.0     initial cutoff
   ENAUG  =  456.1 eV  augmentation charge cutoff
   NELM   =     60;   NELMIN=  2; NELMDL=  0     # of ELM steps
   EDIFF  = 0.1E-05   stopping-criterion for ELM
   LREAL  =      F    real-space projection
   NLSPLINE    = F    spline interpolate recip. space projectors
   LCOMPAT=      F    compatible to vasp.4.4
   GGA_COMPAT  = T    GGA compatible to vasp.4.4-vasp.4.6
   LMAXPAW     = -100 max onsite density
   LMAXMIX     =    2 max onsite mixed and CHGCAR
   VOSKOWN=      0    Vosko Wilk Nusair interpolation
   ROPT   =    0.00000   0.00000
 Ionic relaxation
   EDIFFG = -.5E-02   stopping-criterion for IOM
   NSW    =      1    number of steps for IOM
   NBLOCK =      1;   KBLOCK =      1    inner block; outer block
   IBRION =      2    ionic relax: 0-MD 1-quasi-New 2-CG
   NFREE  =      1    steps in history (QN), initial steepest desc. (CG)
   ISIF   =      3    stress and relaxation
   IWAVPR =     11    prediction:  0-non 1-charg 2-wave 3-comb
   ISYM   =      2    0-nonsym 1-usesym 2-fastsym
   LCORR  =      T    Harris-Foulkes like correction to forces

   POTIM  = 0.5000    time-step for ionic-motion
   TEIN   =    0.0    initial temperature
   TEBEG  =    0.0;   TEEND  =   0.0 temperature during run
   SMASS  =  -3.00    Nose mass-parameter (am)
   estimated Nose-frequenzy (Omega)   =  0.10E-29 period in steps =****** mass=  -0.480E-27a.u.
   SCALEE = 1.0000    scale energy and forces
   NPACO  =    256;   APACO  = 16.0  distance and # of slots for P.C.
   PSTRESS=    0.0 pullay stress

  Mass of Ions in am
   POMASS = 112.41127.60
  Ionic Valenz
   ZVAL   =  12.00  6.00
  Atomic Wigner-Seitz radii
  virtual crystal weights
   VCA    =   1.00  1.00
   NELECT =      18.0000    total number of electrons
   NUPDOWN=      -1.0000    fix difference up-down

 DOS related values:
   EMIN   =  10.00;   EMAX   =-10.00  energy-range for DOS
   EFERMI =   0.00
   ISMEAR =     0;   SIGMA  =   0.01  broadening in eV -4-tet -1-fermi 0-gaus

 Electronic relaxation 2 (details)
   IALGO  =     38    algorithm
   LDIAG  =      T    sub-space diagonalisation (order eigenvalues)
   LSUBROT=      F    optimize rotation matrix (better conditioning)
   TURBO    =      0    0=normal 1=particle mesh
   IRESTART =      0    0=no restart 2=restart with 2 vectors
   NREBOOT  =      0    no. of reboots
   NMIN     =      0    reboot dimension
   EREF     =   0.00    reference energy to select bands
   IMIX   =      4    mixing-type and parameters
     AMIX     =   0.40;   BMIX     =  1.00
     AMIX_MAG =   1.60;   BMIX_MAG =  1.00
     AMIN     =   0.01
     WC   =   100.;   INIMIX=   1;  MIXPRE=   1;  MAXMIX= -45

 Intra band minimization:
   WEIMIN = 0.0010     energy-eigenvalue tresh-hold
   EBREAK =  0.16E-07  absolut break condition
   DEPER  =   0.30     relativ break condition

   TIME   =   0.40     timestep for ELM

  volume/ion in A,a.u.               =      34.05       229.81
  Fermi-wavevector in a.u.,A,eV,Ry     =   1.050581  1.985311 15.017042  1.103721
  Thomas-Fermi vector in A             =   2.185590

 Write flags
   LWAVE  =      T    write WAVECAR
   LCHARG =      T    write CHGCAR
   LVTOT  =      F    write LOCPOT, total local potential
   LVHAR  =      F    write LOCPOT, Hartree potential only
   LELF   =      F    write electronic localiz. function (ELF)
   LORBIT =     10    0 simple, 1 ext, 2 COOP (PROOUT)

 Dipole corrections
   LMONO  =      F    monopole corrections only (constant potential shift)
   LDIPOL =      F    correct potential (dipole corrections)
   IDIPOL =      0    1-x, 2-y, 3-z, 4-all directions
   EPSILON=  1.0000000 bulk dielectric constant

 Core level calculations are selected ICORELEVEL =  1
 Exchange correlation treatment:
   GGA     =    PS    GGA type
   VOSKOWN=      0    Vosko Wilk Nusair interpolation
   LHFCALC =     F    Hartree Fock is set to
   LHFONE  =     F    Hartree Fock one center treatment
   AEXX    =    0.0000 exact exchange contribution

 Linear response parameters
   LEPSILON=     F    determine dielectric tensor
   LRPA    =     F    only Hartree local field effects (RPA)
   LNABLA  =     F    use nabla operator in PAW spheres
   LVEL    =     F    velocity operator in full k-point grid
   LINTERFAST=   F  fast interpolation
   KINTER  =     0    interpolate to denser k-point grid
   CSHIFT  =0.1000    complex shift for real part using Kramers Kronig
   OMEGAMAX=  -1.0    maximum frequency
   DEG_THRESHOLD= 0.2000000E-02 threshold for treating states as degnerate
   RTIME   =    0.100 relaxation time in fs

 Orbital magnetization related:
   ORBITALMAG=     F  switch on orbital magnetization
   LCHIMAG   =     F  perturbation theory with respect to B field
   DQ        =  0.001000  dq finite difference perturbation B field

 conjugate gradient relaxation of ions
 charge density and potential will be updated during run
 non-spin polarized calculation
 Variant of blocked Davidson
 Davidson routine will perform the subspace rotation
 perform sub-space diagonalisation
    after iterative eigenvector-optimisation
[...]
 k-point  2 :   0.1667 0.0000 0.0000  plane waves:    1747
 k-point  3 :   0.3333 0.0000 0.0000  plane waves:    1730
 k-point  4 :   0.5000 0.0000 0.0000  plane waves:    1718
 k-point  5 :   0.1667 0.1667 0.0000  plane waves:    1736
 k-point  6 :   0.3333 0.1667 0.0000  plane waves:    1729
 k-point  7 :   0.5000 0.1667 0.0000  plane waves:    1739
 k-point  8 :  -0.3333 0.1667 0.0000  plane waves:    1732
 k-point  9 :  -0.1667 0.1667 0.0000  plane waves:    1735
 k-point 10 :   0.3333 0.3333 0.0000  plane waves:    1728
 k-point 11 :   0.5000 0.3333 0.0000  plane waves:    1723
 k-point 12 :  -0.3333 0.3333 0.0000  plane waves:    1726
 k-point 13 :   0.5000 0.5000 0.0000  plane waves:    1724
 k-point 14 :   0.5000 0.3333 0.1667  plane waves:    1724
 k-point 15 :  -0.3333 0.3333 0.1667  plane waves:    1726
 k-point 16 :  -0.3333 0.5000 0.1667  plane waves:    1722
 k-point 17 :   0.0000 0.0000 0.0000  plane waves:    1759
 k-point 18 :   0.0005 0.0000 0.0005  plane waves:    1759
 k-point 19 :   0.0010 0.0000 0.0010  plane waves:    1759
 k-point 20 :   0.0015 0.0000 0.0015  plane waves:    1759
 k-point 21 :   0.0020 0.0000 0.0020  plane waves:    1759
 k-point 22 :   0.0025 0.0000 0.0025  plane waves:    1759
 k-point 23 :   0.0030 0.0000 0.0030  plane waves:    1759
 k-point 24 :   0.0035 0.0000 0.0035  plane waves:    1759
 k-point 25 :   0.0040 0.0000 0.0040  plane waves:    1759
 k-point 26 :   0.0045 0.0000 0.0045  plane waves:    1759
 k-point 27 :   0.0050 0.0000 0.0050  plane waves:    1759
 k-point 28 :   0.0055 0.0000 0.0055  plane waves:    1759
 k-point 29 :   0.0060 0.0000 0.0060  plane waves:    1759
 k-point 30 :   0.0065 0.0000 0.0065  plane waves:    1759
 k-point 31 :   0.0070 0.0000 0.0070  plane waves:    1759
 k-point 32 :   0.0075 0.0000 0.0075  plane waves:    1759
 k-point 33 :   0.0080 0.0000 0.0080  plane waves:    1767
 k-point 34 :   0.0085 0.0000 0.0085  plane waves:    1767
 k-point 35 :   0.0090 0.0000 0.0090  plane waves:    1767
 k-point 36 :   0.0095 0.0000 0.0095  plane waves:    1767
 k-point 37 :   0.0100 0.0000 0.0100  plane waves:    1767
 k-point 38 :   0.0105 0.0000 0.0105  plane waves:    1767
 k-point 39 :   0.0110 0.0000 0.0110  plane waves:    1767
 k-point 40 :   0.0115 0.0000 0.0115  plane waves:    1767
 k-point 41 :   0.0120 0.0000 0.0120  plane waves:    1767
 k-point 42 :   0.0125 0.0000 0.0125  plane waves:    1767
 k-point 43 :   0.0130 0.0000 0.0130  plane waves:    1775
 k-point 44 :   0.0135 0.0000 0.0135  plane waves:    1775
 k-point 45 :   0.0140 0.0000 0.0140  plane waves:    1775
 k-point 46 :   0.0145 0.0000 0.0145  plane waves:    1775
 k-point 47 :   0.0150 0.0000 0.0150  plane waves:    1775
 k-point 48 :   0.0155 0.0000 0.0155  plane waves:    1775
 k-point 49 :   0.0160 0.0000 0.0160  plane waves:    1771
 k-point 50 :   0.0165 0.0000 0.0165  plane waves:    1771
 k-point 51 :   0.0170 0.0000 0.0170  plane waves:    1771
 k-point 52 :   0.0175 0.0000 0.0175  plane waves:    1771
 k-point 53 :   0.0180 0.0000 0.0180  plane waves:    1771
 k-point 54 :   0.0185 0.0000 0.0185  plane waves:    1771
 k-point 55 :   0.0190 0.0000 0.0190  plane waves:    1771
 k-point 56 :   0.0195 0.0000 0.0195  plane waves:    1763
 k-point 57 :   0.0200 0.0000 0.0200  plane waves:    1763
 k-point 58 :   0.0205 0.0000 0.0205  plane waves:    1763
 k-point 59 :   0.0210 0.0000 0.0210  plane waves:    1763
 k-point 60 :   0.0215 0.0000 0.0215  plane waves:    1763
[...]
 k-point 85 :   0.0340 0.0000 0.0340  plane waves:    1755
 k-point 86 :   0.0345 0.0000 0.0345  plane waves:    1755
 k-point 87 :   0.0350 0.0000 0.0350  plane waves:    1755
 k-point 88 :   0.0355 0.0000 0.0355  plane waves:    1755
 k-point 89 :   0.0360 0.0000 0.0360  plane waves:    1755
 k-point 90 :   0.0365 0.0000 0.0365  plane waves:    1755
 k-point 91 :   0.0370 0.0000 0.0370  plane waves:    1755
 k-point 92 :   0.0375 0.0000 0.0375  plane waves:    1755
 k-point 93 :   0.0380 0.0000 0.0380  plane waves:    1755
 k-point 94 :   0.0385 0.0000 0.0385  plane waves:    1763
 k-point 95 :   0.0390 0.0000 0.0390  plane waves:    1763
 k-point 96 :   0.0395 0.0000 0.0395  plane waves:    1763
 k-point 97 :   0.0400 0.0000 0.0400  plane waves:    1763
 k-point 98 :   0.0405 0.0000 0.0405  plane waves:    1763
 k-point 99 :   0.0410 0.0000 0.0410  plane waves:    1763
 k-point ** :   0.0415 0.0000 0.0415  plane waves:    1763
 k-point ** :   0.0420 0.0000 0.0420  plane waves:    1763
 k-point ** :   0.0425 0.0000 0.0425  plane waves:    1763
 k-point ** :   0.0430 0.0000 0.0430  plane waves:    1763
 k-point ** :   0.0435 0.0000 0.0435  plane waves:    1763
 k-point ** :   0.0440 0.0000 0.0440  plane waves:    1763
 k-point ** :   0.0445 0.0000 0.0445  plane waves:    1763
 k-point ** :   0.0450 0.0000 0.0450  plane waves:    1763
 k-point ** :   0.0455 0.0000 0.0455  plane waves:    1763
 k-point ** :   0.0460 0.0000 0.0460  plane waves:    1763
 k-point ** :   0.0465 0.0000 0.0465  plane waves:    1763
 k-point ** :   0.0470 0.0000 0.0470  plane waves:    1763
 k-point ** :   0.0475 0.0000 0.0475  plane waves:    1763
 k-point ** :   0.0480 0.0000 0.0480  plane waves:    1763
 k-point ** :   0.0485 0.0000 0.0485  plane waves:    1763
 k-point ** :   0.0490 0.0000 0.0490  plane waves:    1763
 k-point ** :   0.0495 0.0000 0.0495  plane waves:    1763
 k-point ** :   0.0500 0.0000 0.0500  plane waves:    1763
 k-point ** :   0.0505 0.0000 0.0505  plane waves:    1763
 k-point ** :   0.0510 0.0000 0.0510  plane waves:    1763
 k-point ** :   0.0515 0.0000 0.0515  plane waves:    1763
 k-point ** :   0.0520 0.0000 0.0520  plane waves:    1763
 k-point ** :   0.0525 0.0000 0.0525  plane waves:    1763
 k-point ** :   0.0530 0.0000 0.0530  plane waves:    1763
 k-point ** :   0.0535 0.0000 0.0535  plane waves:    1763
 k-point ** :   0.0540 0.0000 0.0540  plane waves:    1763
 k-point ** :   0.0545 0.0000 0.0545  plane waves:    1763
 k-point ** :   0.0550 0.0000 0.0550  plane waves:    1763
 k-point ** :   0.0555 0.0000 0.0555  plane waves:    1763
 k-point ** :   0.0560 0.0000 0.0560  plane waves:    1763
 k-point ** :   0.0565 0.0000 0.0565  plane waves:    1763
 k-point ** :   0.0570 0.0000 0.0570  plane waves:    1763
 k-point ** :   0.0575 0.0000 0.0575  plane waves:    1747
 k-point ** :   0.0580 0.0000 0.0580  plane waves:    1747
 k-point ** :   0.0585 0.0000 0.0585  plane waves:    1747
 k-point ** :   0.0590 0.0000 0.0590  plane waves:    1747
 k-point ** :   0.0595 0.0000 0.0595  plane waves:    1747
 k-point ** :   0.0600 0.0000 0.0600  plane waves:    1747
 k-point ** :   0.0605 0.0000 0.0605  plane waves:    1747
 k-point ** :   0.0610 0.0000 0.0610  plane waves:    1747
 k-point ** :   0.0615 0.0000 0.0615  plane waves:    1747
 k-point ** :   0.0620 0.0000 0.0620  plane waves:    1747
 k-point ** :   0.0625 0.0000 0.0625  plane waves:    1747
 k-point ** :   0.0630 0.0000 0.0630  plane waves:    1747
 k-point ** :   0.0635 0.0000 0.0635  plane waves:    1747
 k-point ** :   0.0640 0.0000 0.0640  plane waves:    1747
 k-point ** :   0.0645 0.0000 0.0645  plane waves:    1747
 k-point ** :   0.0650 0.0000 0.0650  plane waves:    1747
 k-point ** :   0.0655 0.0000 0.0655  plane waves:    1747
 k-point ** :   0.0660 0.0000 0.0660  plane waves:    1747
 k-point ** :   0.0665 0.0000 0.0665  plane waves:    1747
 k-point ** :   0.0670 0.0000 0.0670  plane waves:    1747
 k-point ** :   0.0675 0.0000 0.0675  plane waves:    1747
 k-point ** :   0.0680 0.0000 0.0680  plane waves:    1747
 k-point ** :   0.0685 0.0000 0.0685  plane waves:    1747
 k-point ** :   0.0690 0.0000 0.0690  plane waves:    1747
 k-point ** :   0.0695 0.0000 0.0695  plane waves:    1747
 k-point ** :   0.0700 0.0000 0.0700  plane waves:    1747
 k-point ** :   0.0705 0.0000 0.0705  plane waves:    1747
 k-point ** :   0.0710 0.0000 0.0710  plane waves:    1747
[...]
 k-point ** :   0.4925 0.0000 0.4925  plane waves:    1724
 k-point ** :   0.4930 0.0000 0.4930  plane waves:    1724
 k-point ** :   0.4935 0.0000 0.4935  plane waves:    1724
 k-point ** :   0.4940 0.0000 0.4940  plane waves:    1724
 k-point ** :   0.4945 0.0000 0.4945  plane waves:    1724
 k-point ** :   0.4950 0.0000 0.4950  plane waves:    1724
 k-point ** :   0.4955 0.0000 0.4955  plane waves:    1724
 k-point ** :   0.4960 0.0000 0.4960  plane waves:    1724
 k-point ** :   0.4965 0.0000 0.4965  plane waves:    1724
 k-point ** :   0.4970 0.0000 0.4970  plane waves:    1724
 k-point ** :   0.4975 0.0000 0.4975  plane waves:    1724
 k-point ** :   0.4980 0.0000 0.4980  plane waves:    1724
 k-point ** :   0.4985 0.0000 0.4985  plane waves:    1724
 k-point ** :   0.4990 0.0000 0.4990  plane waves:    1724
 k-point ** :   0.4995 0.0000 0.4995  plane waves:    1724

 maximum and minimum number of plane-waves per node :      1775     1716

 maximum number of plane-waves:      1775
 maximum index in each direction:
   IXMAX=    8   IYMAX=    8   IZMAX=    8
   IXMIN=   -8   IYMIN=   -8   IZMIN=   -8

 NGX is ok and might be reduce to  34
 NGY is ok and might be reduce to  34
 NGZ is ok and might be reduce to  34

 serial   3D FFT for wavefunctions
 parallel 3D FFT for charge:
    minimum data exchange during FFTs selected (reduces bandwidth)

 Broyden mixing: mesh for mixing (old mesh)
   NGX = 17   NGY = 17   NGZ = 17
  (NGX  = 72   NGY  = 72   NGZ  = 72)
  gives a total of   4913 points

 charge density for first step will be calculated from the start-wavefunctions

 Maximum index for augmentation-charges         4865 (set IRDMAX)

 initial charge from wavefunction
 First call to EWALD:  gamma=   0.434
 Maximum number of real-space cells 3x 3x 3
 Maximum number of reciprocal cells 3x 3x 3

 FEWALD executed in parallel

----------------------------------------- Iteration    1(   1)  ---------------------------------------

 eigenvalue-minimisations  : 44296
 total energy-change (2. order) :-0.5482579E+01  (-0.9626125E-07)
 number of electron      17.9999996 magnetization
 augmentation part        4.5608688 magnetization

 Broyden mixing:
  rms(total) = 0.20538E-03    rms(broyden)= 0.20538E-03
  rms(prec ) = 0.42781E-03
  weight for this iteration     100.00

 Free energy of the ion-electron system (eV)
  alpha Z        PSCENC =        50.17222034
  Ewald energy   TEWEN  =     -1044.83138452
  -Hartree energ DENC   =      -502.27355258
  -exchange      EXHF   =         0.00000000
  -V(xc)+E(xc)   XCENC  =       -20.68392825
  PAW double counting   =      1715.12204206    -1643.90616088
  entropy T*S    EENTRO =        -0.00000000
  eigenvalues    EBANDS =       -75.28723138
  atomic energy  EATOM  =      1516.20541573
  Solvation  Ediel_sol  =         0.00000000
  free energy    TOTEN  =        -5.48257947 eV

  energy without entropy =       -5.48257947  energy(sigma->0) =       -5.48257947

----------------------------------------- Iteration    1(   2)  ---------------------------------------

 eigenvalue-minimisations  : 43680
 total energy-change (2. order) : 0.6030359E-07  (-0.2439253E-07)
 number of electron      17.9999996 magnetization
 augmentation part        4.5608688 magnetization

 Free energy of the ion-electron system (eV)
  alpha Z        PSCENC =        50.17222034
  Ewald energy   TEWEN  =     -1044.83138452
  -Hartree energ DENC   =      -502.27689529
  -exchange      EXHF   =         0.00000000
  -V(xc)+E(xc)   XCENC  =       -20.68384536
  PAW double counting   =      1715.13164587    -1643.91621020
  entropy T*S    EENTRO =        -0.00000000
  eigenvalues    EBANDS =       -75.28352598
  atomic energy  EATOM  =      1516.20541573
  Solvation  Ediel_sol  =         0.00000000
  free energy    TOTEN  =        -5.48257941 eV

  energy without entropy =       -5.48257941  energy(sigma->0) =       -5.48257941

 the core state eigenenergies are
   1-  1s -26513.8920  2s  -3931.0632  2p  -3526.3198  3s   -727.8866  3p   -595.1760
       3d   -387.6326  4s    -99.9752  4p    -61.0192
   2-  1s -31612.9788  2s  -4840.5618  2p  -4343.9571  3s   -956.7815  3p   -795.4392
       3d   -551.6891  4s   -156.2922  4p   -106.3322  4d    -33.6591

 E-fermi :   2.2850     XC(G=0):  -8.7762     alpha+bet : -7.4227

 k-point     1 :       0.0000    0.0000    0.0000
  band No.  band energies     occupation
      1      -8.9995      2.00000
      2      -6.0501      2.00000
      3      -6.0501      2.00000
      4      -6.0501      2.00000
      5      -5.7860      2.00000
      6      -5.7860      2.00000
      7       2.2079      2.00000
      8       2.2079      2.00000
      9       2.2079      2.00000
     10       2.8654      0.00000
     11       6.7510      0.00000
     12       6.7510      0.00000
     13       6.7510      0.00000
     14       9.5039      0.00000
     15      11.5491      0.00000
     16      11.5491      0.00000

[...]

 k-point  1016 :       0.4995    0.0000    0.4995
  band No.  band energies     occupation
      1      -8.4529      2.00000
      2      -5.8882      2.00000
      3      -5.8809      2.00000
      4      -5.8548      2.00000
      5      -5.7512      2.00000
      6      -5.2981      2.00000
      7      -2.1361      2.00000
      8       0.3267      2.00000
      9       0.3276      2.00000
     10       4.6976      0.00000
     11       4.8055      0.00000
     12      10.9302      0.00000
     13      11.2772      0.00000
     14      11.2877      0.00000
     15      13.0490      0.00000
     16      13.7661      0.00000

 soft charge-density along one line, spin component           1
         0         1         2         3         4         5         6         7         8         9
 total charge-density along one line

------------------------ aborting loop because EDIFF is reached ----------------------------------------

 total charge

# of ion     s       p       d       tot
  1        0.473   0.319   9.527  10.319
  2        1.351   2.047   0.021   3.420
tot        1.824   2.367   9.549  13.739

  FORCE on cell =-STRESS in cart. coord.  units (eV):
  Direction    XX          YY          ZZ          XY          YZ          ZX
  Alpha Z    50.17222    50.17222    50.17222
  Ewald    -348.27726  -348.27726  -348.27726     0.00000     0.00000    -0.00000
  Hartree   167.42606   167.42606   167.42606     0.00000    -0.00000    -0.00000
  E(xc)     -86.29288   -86.29288   -86.29288    -0.00000     0.00000     0.00000
  Local     -17.80583   -17.80583   -17.80583     0.00001    -0.00001    -0.00001
  n-local    22.60612    27.93249    27.04496    -1.75792    -3.05498    -1.14699
  augment     6.27255     6.27255     6.27255    -0.00001     0.00001     0.00001
  Kinetic   200.33737   203.88169   204.10805    -1.62878    -3.09617    -1.23693
  Fock        0.00000     0.00000     0.00000     0.00000     0.00000     0.00000
  Total       0.13176     0.13176     0.13176    -0.00000    -0.00000    -0.00000
  in kB       3.09937     3.09937     3.09937    -0.00000    -0.00000    -0.00000

 VOLUME and BASIS-vectors are now :
  energy-cutoff  :      500.00
  volume of cell :       68.11
      direct lattice vectors                 reciprocal lattice vectors
     3.241350000  3.241350000  0.000000000     0.154256714  0.154256714  0.154256714
     3.241350000  0.000000000 -3.241350000     0.154256714 -0.154256714 -0.154256714
     0.000000000  3.241350000 -3.241350000    -0.154256714  0.154256714 -0.154256714

  length of vectors
     4.583961130  4.583961130  4.583961130     0.267180466  0.267180466  0.267180466

 FORCES acting on ions
    electron-ion (+dipol)            ewald-force                    non-local-force                 convergence-correction
   -.329E-06 -.330E-06 0.330E-06   -.153E-13 -.130E-13 0.167E-13   0.173E-16 0.173E-16 -.104E-16   -.433E-09 -.433E-09 0.433E-09
   0.158E-06 0.164E-06 -.164E-06   0.145E-13 0.128E-13 -.169E-13   0.677E-16 0.416E-16 -.111E-15   -.127E-09 -.127E-09 0.127E-09
   -.172E-06 -.166E-06 0.166E-06   -.840E-15 -.129E-15 -.231E-15   0.850E-16 0.590E-16 -.121E-15   -.560E-09 -.560E-09 0.560E-09

 POSITION                                       TOTAL-FORCE (eV/Angst)
      0.00000      0.00000      0.00000        -0.000000      0.000000     -0.000000
      1.62068      1.62068     -1.62068         0.000000     -0.000000      0.000000
    total drift:                               -0.000000     -0.000000      0.000000

  FREE ENERGIE OF THE ION-ELECTRON SYSTEM (eV)
  free  energy   TOTEN  =        -5.48257941 eV

  energy  without entropy=       -5.48257941  energy(sigma->0) =       -5.48257941

 writing wavefunctions

 total charge

# of ion     s       p       d       tot
  1        0.473   0.319   9.527  10.319
  2        1.351   2.047   0.021   3.420
tot        1.824   2.367   9.549  13.739