 vasp.5.4.1 05Feb16 (build Jun 25 2016 17:05:53) complex

 executed on           IFC91_ompi date 2016.06.29  22:58:54

 INCAR:
 POTCAR:    PAW_PBE C 08Apr2002
 POTCAR:    PAW_PBE N 08Apr2002
 POTCAR:    PAW_PBE H 15Jun2001
 POTCAR:    PAW_PBE Pb_d 06Sep2000
 POTCAR:    PAW_PBE I 08Apr2002

 POTCAR:    PAW_PBE C 08Apr2002
   VRHFIN =C: s2p2

   TITEL  = PAW_PBE C 08Apr2002
   POMASS =   12.011; ZVAL   =    4.000    mass and valenz
   ENMAX  =  400.000; ENMIN  =  300.000 eV

 POTCAR:    PAW_PBE N 08Apr2002
   VRHFIN =N: s2p3

[...]

 POTCAR:    PAW_PBE H 15Jun2001
   VRHFIN =H: ultrasoft test

   TITEL  = PAW_PBE H 15Jun2001
   POMASS =    1.000; ZVAL   =    1.000    mass and valenz
   ENMAX  =  250.000; ENMIN  =  200.000 eV

 POTCAR:    PAW_PBE Pb_d 06Sep2000
   VRHFIN =Pb:

   TITEL  = PAW_PBE Pb_d 06Sep2000
   POMASS =  207.200; ZVAL   =   14.000    mass and valenz
   ENMAX  =  237.835; ENMIN  =  178.376 eV

 POTCAR:    PAW_PBE I 08Apr2002
   VRHFIN =I : s2p5

   TITEL  = PAW_PBE I 08Apr2002
   POMASS =  126.904; ZVAL   =    7.000    mass and valenz
   ENMAX  =  175.647; ENMIN  =  131.735 eV

  PAW_PBE C 08Apr2002                   :
  PAW_PBE N 08Apr2002                   :
  PAW_PBE H 15Jun2001                   :
  PAW_PBE Pb_d 06Sep2000                :
  PAW_PBE I 08Apr2002                   :

 POSCAR: C N H Pb I
  positions in direct lattice
 exchange correlation table for  LEXCH =        8
   RHO(1)=    0.500       N(1)  =     2000
   RHO(2)=  100.500       N(2)  =     4000

 ion  position               nearest neighbor table
   1  0.198  0.250  0.229-  25 1.10  33 1.10  17 1.11   9 1.49
   2  0.696  0.250  0.229-  26 1.10  34 1.10  18 1.11  10 1.49
   3  0.196  0.750  0.229-  27 1.10  35 1.10  19 1.11  11 1.49
   4  0.698  0.750  0.229-  28 1.10  36 1.10  20 1.11  12 1.49
   5  0.196  0.250  0.729-  29 1.10  37 1.10  21 1.11  13 1.49
   6  0.698  0.250  0.729-  30 1.10  38 1.10  22 1.11  14 1.49
   7  0.198  0.750  0.729-  31 1.10  39 1.10  23 1.11  15 1.49
   8  0.696  0.750  0.729-  32 1.10  40 1.10  24 1.11  16 1.49
   9  0.311  0.250  0.261-  41 1.05  49 1.05  57 1.06   1 1.49
  10  0.798  0.250  0.286-  58 1.04  42 1.05  50 1.05   2 1.49
  11  0.298  0.750  0.286-  59 1.04  43 1.05  51 1.05   3 1.49
  12  0.811  0.750  0.261-  44 1.05  52 1.05  60 1.06   4 1.49
  13  0.298  0.250  0.786-  61 1.04  45 1.05  53 1.05   5 1.49
  14  0.811  0.250  0.761-  46 1.05  54 1.05  62 1.06   6 1.49
  15  0.311  0.750  0.761-  47 1.05  55 1.05  63 1.06   7 1.49
  16  0.798  0.750  0.786-  64 1.04  48 1.05  56 1.05   8 1.49
  17  0.196  0.250  0.142-   1 1.11
  18  0.715  0.250  0.144-   2 1.11
  19  0.215  0.750  0.144-   3 1.11
  20  0.696  0.750  0.142-   4 1.11
  21  0.215  0.250  0.644-   5 1.11
  22  0.696  0.250  0.642-   6 1.11
  23  0.196  0.750  0.642-   7 1.11
  24  0.715  0.750  0.644-   8 1.11
  25  0.158  0.322  0.260-   1 1.10
  26  0.651  0.322  0.251-   2 1.10
  27  0.151  0.822  0.251-   3 1.10
  28  0.658  0.822  0.260-   4 1.10
  29  0.151  0.322  0.751-   5 1.10
  30  0.658  0.322  0.760-   6 1.10
  31  0.158  0.822  0.760-   7 1.10
  32  0.651  0.822  0.751-   8 1.10
  33  0.158  0.177  0.260-   1 1.10
  34  0.651  0.177  0.251-   2 1.10
  35  0.151  0.677  0.251-   3 1.10
  36  0.658  0.677  0.260-   4 1.10
  37  0.151  0.177  0.751-   5 1.10
  38  0.658  0.177  0.760-   6 1.10
  39  0.158  0.677  0.760-   7 1.10
  40  0.651  0.677  0.751-   8 1.10
  41  0.352  0.318  0.234-   9 1.05
  42  0.844  0.318  0.268-  10 1.05
  43  0.344  0.818  0.268-  11 1.05
  44  0.852  0.818  0.234-  12 1.05
  45  0.344  0.318  0.768-  13 1.05
  46  0.852  0.318  0.734-  14 1.05
  47  0.352  0.818  0.734-  15 1.05
  48  0.844  0.818  0.768-  16 1.05
  49  0.352  0.182  0.234-   9 1.05
  50  0.844  0.182  0.268-  10 1.05
  51  0.344  0.682  0.268-  11 1.05
  52  0.852  0.682  0.234-  12 1.05
  53  0.344  0.182  0.768-  13 1.05
  54  0.852  0.182  0.734-  14 1.05
  55  0.352  0.682  0.734-  15 1.05
  56  0.844  0.682  0.768-  16 1.05
  57  0.320  0.250  0.343-   9 1.06
  58  0.787  0.250  0.368-  10 1.04
  59  0.287  0.750  0.368-  11 1.04
  60  0.820  0.750  0.343-  12 1.06
[...]
  82  0.925  0.250  0.013-  72 3.17  70 3.17
  83  0.425  0.750  0.013-  69 3.17  71 3.17
  84  0.975  0.750  0.011-  70 3.15  72 3.15
  85  0.425  0.250  0.513-  67 3.17  65 3.17
  86  0.975  0.250  0.511-  68 3.15  66 3.15
  87  0.475  0.750  0.511-  65 3.15  67 3.15
  88  0.925  0.750  0.513-  66 3.17  68 3.17
  89  0.216  0.529  0.461-  66 3.10  65 3.27
  90  0.716  0.471  0.461-  65 3.10  66 3.27
  91  0.216  0.971  0.461-  68 3.10  67 3.27
  92  0.716  0.029  0.461-  67 3.10  68 3.27
  93  0.216  0.471  0.961-  70 3.10  69 3.27
  94  0.716  0.529  0.961-  69 3.10  70 3.27
  95  0.216  0.029  0.961-  72 3.10  71 3.27
  96  0.716  0.971  0.961-  71 3.10  72 3.27

  LATTYP: Found a triclinic cell.
 ALAT       =    17.8238589327
 B/A-ratio  =     0.6989248630
 C/A-ratio  =     1.0156975818
 COS(alpha) =     0.0001355172
 COS(beta)  =     0.5146378593
 COS(gamma) =     0.6988877578

  Lattice vectors:

 A1 = (  -0.1406063366, -12.4576271275, -12.7466742118)
 A2 = (  -0.0011956322, -12.4575380825,   0.0007464135)
 A3 = ( -12.7162481321,  -0.0020049566, -12.8856194186)

Analysis of symmetry for initial positions (statically):
 Subroutine PRICEL returns following result:

[...]

   4 primitive cells build up your supercell.

 Routine SETGRP: Setting up the symmetry group for a
 triclinic supercell.

 Subroutine GETGRP returns: Found  1 space group operations
 (whereof  1 operations were pure point group operations)
 out of a pool of  2 trial point group operations.

The static configuration has the point symmetry C_1 .

Analysis of symmetry for dynamics (positions and initial velocities):
 Subroutine PRICEL returns following result:

  LATTYP: Found a triclinic cell.
 ALAT       =     8.8524544993
 B/A-ratio  =     1.4072411401
 C/A-ratio  =     1.0225215175
 COS(alpha) =     0.0001355172
 COS(beta)  =     0.5046167836
 COS(gamma) =     0.7037964938

  Lattice vectors:

 A1 = (   6.2890165300,   6.2297269971,   0.0687261899)
 A2 = (   0.0011956322,  12.4575380825,  -0.0007464135)
 A3 = (   6.3581240661,   0.0010024783,   6.4428097093)

   4 primitive cells build up your supercell.

 Routine SETGRP: Setting up the symmetry group for a
 triclinic supercell.

 Subroutine GETGRP returns: Found  1 space group operations
 (whereof  1 operations were pure point group operations)
 out of a pool of  2 trial point group operations.

The dynamic configuration has the point symmetry C_1 .

 Subroutine INISYM returns: Found  1 space group operations
 (whereof  1 operations are pure point group operations),
 and found     4 'primitive' translations

 KPOINTS: Automatic 3x3x3

Automatic generation of k-mesh.
Space group operators:
 irot       det(A)        alpha          n_x          n_y          n_z        tau_x        tau_y        tau_z
    1     1.000000     0.000000     1.000000     0.000000     0.000000     0.000000     0.000000     0.000000

 Subroutine IBZKPT returns following result:

 Found     14 irreducible k-points:

 Following reciprocal coordinates:
            Coordinates               Weight
  0.000000  0.000000  0.000000      1.000000
  0.333333  0.000000  0.000000      2.000000
  0.000000  0.333333  0.000000      2.000000
  0.333333  0.333333  0.000000      2.000000
 -0.333333  0.333333  0.000000      2.000000
  0.000000  0.000000  0.333333      2.000000
  0.333333  0.000000  0.333333      2.000000
 -0.333333  0.000000  0.333333      2.000000
  0.000000  0.333333  0.333333      2.000000
  0.333333  0.333333  0.333333      2.000000
 -0.333333  0.333333  0.333333      2.000000
  0.000000 -0.333333  0.333333      2.000000
  0.333333 -0.333333  0.333333      2.000000
 -0.333333 -0.333333  0.333333      2.000000

 Following cartesian coordinates:
            Coordinates               Weight
  0.000000  0.000000  0.000000      1.000000
  0.026507 -0.000003 -0.000290      2.000000
 -0.000004  0.026758 -0.000000      2.000000
  0.026503  0.026755 -0.000290      2.000000
 -0.026511  0.026760  0.000290      2.000000
 -0.000287  0.000002  0.026152      2.000000
  0.026220 -0.000001  0.025862      2.000000
 -0.026794  0.000004  0.026442      2.000000
 -0.000291  0.026759  0.026152      2.000000
  0.026215  0.026757  0.025862      2.000000
 -0.026798  0.026762  0.026442      2.000000
 -0.000283 -0.026756  0.026152      2.000000
  0.026224 -0.026759  0.025862      2.000000
 -0.026790 -0.026753  0.026442      2.000000

 Subroutine IBZKPT_HF returns following result:

 Found     27 k-points in 1st BZ
 the following     27 k-points will be used (e.g. in the exchange kernel)
 Following reciprocal coordinates:   # in IRBZ
  0.000000  0.000000  0.000000    0.03703704   1 t-inv F
  0.333333  0.000000  0.000000    0.03703704   2 t-inv F
  0.000000  0.333333  0.000000    0.03703704   3 t-inv F
  0.333333  0.333333  0.000000    0.03703704   4 t-inv F
 -0.333333  0.333333  0.000000    0.03703704   5 t-inv F
  0.000000  0.000000  0.333333    0.03703704   6 t-inv F
  0.333333  0.000000  0.333333    0.03703704   7 t-inv F
 -0.333333  0.000000  0.333333    0.03703704   8 t-inv F
  0.000000  0.333333  0.333333    0.03703704   9 t-inv F
  0.333333  0.333333  0.333333    0.03703704  10 t-inv F
 -0.333333  0.333333  0.333333    0.03703704  11 t-inv F
  0.000000 -0.333333  0.333333    0.03703704  12 t-inv F
  0.333333 -0.333333  0.333333    0.03703704  13 t-inv F
 -0.333333 -0.333333  0.333333    0.03703704  14 t-inv F
 -0.333333 -0.000000 -0.000000    0.03703704   2 t-inv T
 -0.000000 -0.333333 -0.000000    0.03703704   3 t-inv T
 -0.333333 -0.333333 -0.000000    0.03703704   4 t-inv T
  0.333333 -0.333333 -0.000000    0.03703704   5 t-inv T
 -0.000000 -0.000000 -0.333333    0.03703704   6 t-inv T
 -0.333333 -0.000000 -0.333333    0.03703704   7 t-inv T
  0.333333 -0.000000 -0.333333    0.03703704   8 t-inv T
 -0.000000 -0.333333 -0.333333    0.03703704   9 t-inv T
 -0.333333 -0.333333 -0.333333    0.03703704  10 t-inv T
  0.333333 -0.333333 -0.333333    0.03703704  11 t-inv T
 -0.000000  0.333333 -0.333333    0.03703704  12 t-inv T
 -0.333333  0.333333 -0.333333    0.03703704  13 t-inv T
  0.333333  0.333333 -0.333333    0.03703704  14 t-inv T

 I would recommend the setting:
   dimension x,y,z NGX =   109 NGY =  107 NGZ =  110
 SYSTEM =  MAPbI3-Cubic
 POSCAR =  C N H Pb I

 Startparameter for this run:
   NWRITE =      2    write-flag & timer
   PREC   = accura    normal or accurate (medium, high low for compatibility)
   ISTART =      0    job   : 0-new  1-cont  2-samecut
   ICHARG =      2    charge: 1-file 2-atom 10-const
   ISPIN  =      1    spin polarized calculation?
   LNONCOLLINEAR =      F non collinear calculations
   LSORBIT =      F    spin-orbit coupling
   INIWAV =      1    electr: 0-lowe 1-rand  2-diag
   LASPH  =      F    aspherical Exc in radial PAW
   METAGGA=      F    non-selfconsistent MetaGGA calc.

 Electronic Relaxation 1
   ENCUT  =  700.0 eV  51.45 Ry    7.17 a.u.  27.13 26.87 27.50*2*pi/ulx,y,z
   ENINI  =  700.0     initial cutoff
   ENAUG  =  644.9 eV  augmentation charge cutoff
[...]
     52     -13.3113      2.00000
     53     -13.2176      2.00000
     54     -13.2163      2.00000
     55     -13.2090      2.00000
     56     -13.2080      2.00000
     57     -12.2410      2.00000
     58     -12.1569      2.00000
     59     -12.1493      2.00000
     60     -12.1273      2.00000
[...]
    238       7.1992      0.00000
    239       7.2569      0.00000
    240       7.3449      0.00000
    241       7.3774      0.00000
    242       7.3873      0.00000
    243       7.4490      0.00000
    244       7.5493      0.00000
    245       7.6027      0.00000
    246       7.6781      0.00000
    247       7.7259      0.00000
    248       7.7702      0.00000
    249       7.8804      0.00000
    250       7.9635      0.00000
    251       8.0307      0.00000
    252       8.1106      0.00000

 soft charge-density along one line, spin component           1
         0         1         2         3         4         5         6         7         8         9
 total charge-density along one line

------------------------ aborting loop because EDIFF is reached ----------------------------------------

  FORCE on cell =-STRESS in cart. coord.  units (eV):
  Direction    XX          YY          ZZ          XY          YZ          ZX
  Alpha Z   370.05371   370.05371   370.05371
  Ewald   -5354.00910 -5076.72723 -5118.99510     1.07820     0.72111   430.34478
  Hartree  2653.98001  2880.15740  2876.48293     0.70516     0.46684   291.05896
  E(xc)   -1235.12629 -1234.78503 -1235.35135     0.00004     0.00101     0.22941
  Local   -4478.44934 -4954.41158 -4919.32591    -1.78494    -1.19875  -722.83510
  n-local  4269.83936  4252.59148  4252.42374     0.01714     0.01095     7.25075
  augment    94.57903    95.61674    93.46611     0.00319     0.00134    -0.14764
  Kinetic  4646.73020  4637.34669  4648.90505    -0.02452     0.00336    -6.27659
  Fock     -968.22785  -970.48552  -970.05995     0.00148     0.00110     0.71226
  Total      -0.63028    -0.64334    -2.40078    -0.00426     0.00696     0.33683
  in kB      -0.50567    -0.51615    -1.92615    -0.00342     0.00559     0.27024

 VOLUME and BASIS-vectors are now :
  energy-cutoff  :      700.00
  volume of cell :     1996.98
      direct lattice vectors                 reciprocal lattice vectors
    12.576837428  0.001915912  0.138198793     0.079520802 -0.000007684 -0.000869670
     0.001195632 12.457538083 -0.000746413    -0.000012224  0.080272684 -0.000000427
     0.139410704  0.000089045 12.747420625    -0.000862111  0.000004784  0.078456671

  length of vectors
    12.577596840 12.457538162 12.748182927     0.079525558  0.080272685  0.078461408

 FORCES acting on ions:
    Electron-Ion                     Ewald-Force                    Non-Local-Force
   0.884E+02 0.432E-01 0.235E+02   -.958E+02 -.534E-01 -.260E+02   0.701E+01 0.885E-02 0.219E+01
   0.806E+02 0.692E-01 0.492E+02   -.873E+02 -.767E-01 -.534E+02   0.634E+01 0.637E-02 0.383E+01
   0.806E+02 0.692E-01 0.492E+02   -.873E+02 -.767E-01 -.534E+02   0.634E+01 0.637E-02 0.383E+01
   0.884E+02 0.432E-01 0.235E+02   -.958E+02 -.534E-01 -.260E+02   0.701E+01 0.885E-02 0.219E+01
   0.806E+02 0.692E-01 0.492E+02   -.873E+02 -.767E-01 -.534E+02   0.634E+01 0.637E-02 0.383E+01
   0.884E+02 0.432E-01 0.235E+02   -.958E+02 -.534E-01 -.260E+02   0.701E+01 0.885E-02 0.219E+01
   0.884E+02 0.432E-01 0.235E+02   -.958E+02 -.534E-01 -.260E+02   0.701E+01 0.885E-02 0.219E+01
   0.806E+02 0.692E-01 0.492E+02   -.873E+02 -.767E-01 -.534E+02   0.634E+01 0.637E-02 0.383E+01
   -.362E+02 -.138E+00 -.158E+02   0.350E+02 0.136E+00 0.159E+02   0.156E+01 0.171E-02 0.131E+00
   -.388E+02 -.395E-01 -.172E+02   0.378E+02 0.352E-01 0.164E+02   0.126E+01 0.357E-02 0.920E+00
   -.388E+02 -.395E-01 -.172E+02   0.378E+02 0.352E-01 0.164E+02   0.126E+01 0.357E-02 0.920E+00
   -.362E+02 -.138E+00 -.158E+02   0.350E+02 0.136E+00 0.159E+02   0.156E+01 0.171E-02 0.131E+00
   -.388E+02 -.395E-01 -.172E+02   0.378E+02 0.352E-01 0.164E+02   0.126E+01 0.357E-02 0.920E+00
   -.362E+02 -.138E+00 -.158E+02   0.350E+02 0.136E+00 0.159E+02   0.156E+01 0.171E-02 0.131E+00
   -.362E+02 -.138E+00 -.158E+02   0.350E+02 0.136E+00 0.159E+02   0.156E+01 0.171E-02 0.131E+00
   -.388E+02 -.395E-01 -.172E+02   0.378E+02 0.352E-01 0.164E+02   0.126E+01 0.357E-02 0.920E+00
   0.111E+02 0.383E-01 0.498E+02   -.114E+02 -.438E-01 -.550E+02   0.340E+00 0.574E-02 0.553E+01
   0.314E+00 0.535E-01 0.525E+02   0.560E+00 -.587E-01 -.575E+02   -.949E+00 0.535E-02 0.547E+01
   0.314E+00 0.535E-01 0.525E+02   0.560E+00 -.587E-01 -.575E+02   -.949E+00 0.535E-02 0.547E+01
   0.111E+02 0.383E-01 0.498E+02   -.114E+02 -.438E-01 -.550E+02   0.340E+00 0.574E-02 0.553E+01
   0.314E+00 0.535E-01 0.525E+02   0.560E+00 -.587E-01 -.575E+02   -.949E+00 0.535E-02 0.547E+01
   0.111E+02 0.383E-01 0.498E+02   -.114E+02 -.438E-01 -.550E+02   0.340E+00 0.574E-02 0.553E+01
   0.111E+02 0.383E-01 0.498E+02   -.114E+02 -.438E-01 -.550E+02   0.340E+00 0.574E-02 0.553E+01
   0.314E+00 0.535E-01 0.525E+02   0.560E+00 -.587E-01 -.575E+02   -.949E+00 0.535E-02 0.547E+01
   0.290E+02 -.392E+02 -.146E+02   -.315E+02 0.436E+02 0.164E+02   0.266E+01 -.455E+01 -.193E+01
   0.317E+02 -.395E+02 -.578E+01   -.346E+02 0.439E+02 0.703E+01   0.298E+01 -.455E+01 -.130E+01
   0.317E+02 -.395E+02 -.578E+01   -.346E+02 0.439E+02 0.703E+01   0.298E+01 -.455E+01 -.130E+01
   0.290E+02 -.392E+02 -.146E+02   -.315E+02 0.436E+02 0.164E+02   0.266E+01 -.455E+01 -.193E+01
   0.317E+02 -.395E+02 -.578E+01   -.346E+02 0.439E+02 0.703E+01   0.298E+01 -.455E+01 -.130E+01
   0.290E+02 -.392E+02 -.146E+02   -.315E+02 0.436E+02 0.164E+02   0.266E+01 -.455E+01 -.193E+01
   0.290E+02 -.392E+02 -.146E+02   -.315E+02 0.436E+02 0.164E+02   0.266E+01 -.455E+01 -.193E+01
   0.317E+02 -.395E+02 -.578E+01   -.346E+02 0.439E+02 0.703E+01   0.298E+01 -.455E+01 -.130E+01
   0.289E+02 0.392E+02 -.146E+02   -.314E+02 -.436E+02 0.165E+02   0.265E+01 0.455E+01 -.194E+01
   0.317E+02 0.395E+02 -.586E+01   -.345E+02 -.439E+02 0.712E+01   0.298E+01 0.455E+01 -.131E+01
   0.317E+02 0.395E+02 -.586E+01   -.345E+02 -.439E+02 0.712E+01   0.298E+01 0.455E+01 -.131E+01
   0.289E+02 0.392E+02 -.146E+02   -.314E+02 -.436E+02 0.165E+02   0.265E+01 0.455E+01 -.194E+01
   0.317E+02 0.395E+02 -.586E+01   -.345E+02 -.439E+02 0.712E+01   0.298E+01 0.455E+01 -.131E+01
   0.289E+02 0.392E+02 -.146E+02   -.314E+02 -.436E+02 0.165E+02   0.265E+01 0.455E+01 -.194E+01
   0.289E+02 0.392E+02 -.146E+02   -.314E+02 -.436E+02 0.165E+02   0.265E+01 0.455E+01 -.194E+01
   0.317E+02 0.395E+02 -.586E+01   -.345E+02 -.439E+02 0.712E+01   0.298E+01 0.455E+01 -.131E+01
   -.310E+02 -.485E+02 0.201E+02   0.341E+02 0.536E+02 -.222E+02   -.333E+01 -.544E+01 0.223E+01
   -.361E+02 -.481E+02 0.148E+02   0.395E+02 0.532E+02 -.161E+02   -.370E+01 -.542E+01 0.146E+01
   -.361E+02 -.481E+02 0.148E+02   0.395E+02 0.532E+02 -.161E+02   -.370E+01 -.542E+01 0.146E+01
   -.310E+02 -.485E+02 0.201E+02   0.341E+02 0.536E+02 -.222E+02   -.333E+01 -.544E+01 0.223E+01
   -.361E+02 -.481E+02 0.148E+02   0.395E+02 0.532E+02 -.161E+02   -.370E+01 -.542E+01 0.146E+01
   -.310E+02 -.485E+02 0.201E+02   0.341E+02 0.536E+02 -.222E+02   -.333E+01 -.544E+01 0.223E+01
   -.310E+02 -.485E+02 0.201E+02   0.341E+02 0.536E+02 -.222E+02   -.333E+01 -.544E+01 0.223E+01
   -.361E+02 -.481E+02 0.148E+02   0.395E+02 0.532E+02 -.161E+02   -.370E+01 -.542E+01 0.146E+01
   -.311E+02 0.484E+02 0.200E+02   0.342E+02 -.536E+02 -.221E+02   -.334E+01 0.543E+01 0.222E+01
   -.361E+02 0.481E+02 0.146E+02   0.395E+02 -.532E+02 -.160E+02   -.370E+01 0.543E+01 0.144E+01
   -.361E+02 0.481E+02 0.146E+02   0.395E+02 -.532E+02 -.160E+02   -.370E+01 0.543E+01 0.144E+01
   -.311E+02 0.484E+02 0.200E+02   0.342E+02 -.536E+02 -.221E+02   -.334E+01 0.543E+01 0.222E+01
   -.361E+02 0.481E+02 0.146E+02   0.395E+02 -.532E+02 -.160E+02   -.370E+01 0.543E+01 0.144E+01
   -.311E+02 0.484E+02 0.200E+02   0.342E+02 -.536E+02 -.221E+02   -.334E+01 0.543E+01 0.222E+01
   -.311E+02 0.484E+02 0.200E+02   0.342E+02 -.536E+02 -.221E+02   -.334E+01 0.543E+01 0.222E+01
   -.361E+02 0.481E+02 0.146E+02   0.395E+02 -.532E+02 -.160E+02   -.370E+01 0.543E+01 0.144E+01
   -.372E+01 -.564E-01 -.608E+02   0.438E+01 0.608E-01 0.667E+02   -.827E+00 -.427E-02 -.652E+01
   0.100E+02 -.805E-01 -.650E+02   -.109E+02 0.904E-01 0.714E+02   0.874E+00 -.103E-01 -.686E+01
   0.100E+02 -.805E-01 -.650E+02   -.109E+02 0.904E-01 0.714E+02   0.874E+00 -.103E-01 -.686E+01
   -.372E+01 -.564E-01 -.608E+02   0.438E+01 0.608E-01 0.667E+02   -.827E+00 -.427E-02 -.652E+01
[...]
   0.741E+01 -.533E-01 -.179E+02   -.782E+01 0.547E-01 0.187E+02   0.412E+00 -.112E-02 -.834E+00
   -.355E+02 -.521E-01 -.113E+02   0.358E+02 0.534E-01 0.118E+02   -.137E+00 -.106E-02 -.480E+00
   0.741E+01 -.533E-01 -.179E+02   -.782E+01 0.547E-01 0.187E+02   0.412E+00 -.112E-02 -.834E+00
   -.355E+02 -.521E-01 -.113E+02   0.358E+02 0.534E-01 0.118E+02   -.137E+00 -.106E-02 -.480E+00
   -.355E+02 -.521E-01 -.113E+02   0.358E+02 0.534E-01 0.118E+02   -.137E+00 -.106E-02 -.480E+00
   0.741E+01 -.533E-01 -.179E+02   -.782E+01 0.547E-01 0.187E+02   0.412E+00 -.112E-02 -.834E+00
   0.490E+01 0.192E+01 -.493E+01   -.435E+01 -.174E+01 0.452E+01   -.570E+00 -.176E+00 0.477E+00
   0.490E+01 -.192E+01 -.500E+01   -.435E+01 0.174E+01 0.459E+01   -.570E+00 0.174E+00 0.477E+00
   0.490E+01 -.192E+01 -.500E+01   -.435E+01 0.174E+01 0.459E+01   -.570E+00 0.174E+00 0.477E+00
   0.490E+01 0.192E+01 -.493E+01   -.435E+01 -.174E+01 0.452E+01   -.570E+00 -.176E+00 0.477E+00
   0.490E+01 -.192E+01 -.500E+01   -.435E+01 0.174E+01 0.459E+01   -.570E+00 0.174E+00 0.477E+00
   0.490E+01 0.192E+01 -.493E+01   -.435E+01 -.174E+01 0.452E+01   -.570E+00 -.176E+00 0.477E+00
   0.490E+01 0.192E+01 -.493E+01   -.435E+01 -.174E+01 0.452E+01   -.570E+00 -.176E+00 0.477E+00
   0.490E+01 -.192E+01 -.500E+01   -.435E+01 0.174E+01 0.459E+01   -.570E+00 0.174E+00 0.477E+00
   -.606E+02 -.108E+00 -.243E+02   0.290E-12 -.119E-12 -.282E-12   0.568E+02 0.100E+00 0.229E+02

 POSITION                                       TOTAL-FORCE (eV/Angst)
      2.51807      3.11299      2.94139        -0.143520     -0.000885     -0.154977
      8.78990      3.11525      3.01794        -0.091870     -0.000840     -0.181220
      2.50208      9.34306      2.94847        -0.091870     -0.000840     -0.181220
      8.80708      9.34272      3.01012        -0.143520     -0.000885     -0.154977
      2.57119      3.11433      9.32255        -0.091870     -0.000840     -0.181220
      8.87619      3.11399      9.38420        -0.143520     -0.000885     -0.154977
      2.58837      9.34180      9.31473        -0.143520     -0.000885     -0.154977
      8.86021      9.34406      9.39128        -0.091870     -0.000840     -0.181220
      3.94389      3.11463      3.37363         0.455778     -0.000435      0.204032
     10.08172      3.11640      3.76190         0.375610     -0.000474      0.214903
      3.79390      9.34421      3.69243         0.375610     -0.000474      0.214903
     10.23291      9.34436      3.44236         0.455778     -0.000435      0.204032
      3.86300      3.11549     10.06652         0.375610     -0.000474      0.214903
     10.30202      3.11563      9.81644         0.455778     -0.000435      0.204032
      4.01420      9.34344      9.74697         0.455778     -0.000435      0.204032
     10.15202      9.34522     10.13524         0.375610     -0.000474      0.214903
      2.47974      3.11190      1.83527         0.055197      0.000601      0.632571
      9.00751      3.11418      1.93306        -0.116377      0.000461      0.647430
      2.71969      9.34200      1.86359        -0.116377      0.000461      0.647430
      8.76876      9.34162      1.90400         0.055197      0.000601      0.632571
      2.78880      3.11327      8.23767        -0.116377      0.000461      0.647430
      8.83787      3.11290      8.27808         0.055197      0.000601      0.632571
      2.55004      9.34071      8.20861         0.055197      0.000601      0.632571
      9.07781      9.34300      8.30640        -0.116377      0.000461      0.647430
      2.02129      4.01445      3.33385         0.261167     -0.357500     -0.156125
      8.22131      4.01857      3.29175         0.287659     -0.369859     -0.106981
      1.93349     10.24638      3.22228         0.287659     -0.369859     -0.106981
      8.31030     10.24418      3.40257         0.261167     -0.357500     -0.156125
      2.00260      4.01766      9.59636         0.287659     -0.369859     -0.106981
      8.37941      4.01546      9.77666         0.261167     -0.357500     -0.156125
      2.09159     10.24327      9.70719         0.261167     -0.357500     -0.156125
      8.29161     10.24738      9.66509         0.287659     -0.369859     -0.106981
      2.02300      2.21131      3.33557         0.260269      0.358375     -0.157382
      8.22192      2.21212      3.29373         0.287329      0.370417     -0.108342
      1.93410      8.43993      3.22425         0.287329      0.370417     -0.108342
      8.31202      8.44103      3.40430         0.260269      0.358375     -0.157382
      2.00321      2.21120      9.59834         0.287329      0.370417     -0.108342
      8.38113      2.21231      9.77838         0.260269      0.358375     -0.157382
      2.09331      8.44012      9.70891         0.260269      0.358375     -0.157382
      8.29223      8.44093      9.66706         0.287329      0.370417     -0.108342
      4.45793      3.95939      3.02587        -0.389046     -0.546166      0.217405
     10.65803      3.96280      3.53197        -0.430756     -0.558038      0.135168
      4.37021     10.19062      3.46250        -0.430756     -0.558038      0.135168
     10.74694     10.18912      3.09460        -0.389046     -0.546166      0.217405
      4.43932      3.96189      9.83658        -0.430756     -0.558038      0.135168
     10.81605      3.96040      9.46868        -0.389046     -0.546166      0.217405
      4.52823     10.18821      9.39921        -0.389046     -0.546166      0.217405
     10.72834     10.19162      9.90531        -0.430756     -0.558038      0.135168
      4.45932      2.27013      3.02712        -0.390580      0.546630      0.216049
     10.65813      2.26937      3.53438        -0.431421      0.559038      0.132916
      4.37031      8.49718      3.46490        -0.431421      0.559038      0.132916
     10.74834      8.49986      3.09584        -0.390580      0.546630      0.216049
      4.43941      2.26845      9.83899        -0.431421      0.559038      0.132916
     10.81745      2.27113      9.46993        -0.390580      0.546630      0.216049
      4.52963      8.49894      9.40046        -0.390580      0.546630      0.216049
     10.72843      8.49818      9.90771        -0.431421      0.559038      0.132916
      4.06959      3.11533      4.42155        -0.198013     -0.000054     -0.827055
      9.94441      3.11795      4.79717         0.047978     -0.000919     -0.804855
      3.65659      9.34576      4.72770         0.047978     -0.000919     -0.804855
     10.35861      9.34506      4.49028        -0.198013     -0.000054     -0.827055
[...]
     11.62948      3.11597      0.29272         0.031396      0.000225     -0.036972
      5.34166      9.34378      0.22325         0.031396      0.000225     -0.036972
     12.26184      9.34469      0.27067         0.093511      0.000218     -0.031109
      5.41077      3.11506      6.59733         0.031396      0.000225     -0.036972
     12.33094      3.11596      6.64475         0.093511      0.000218     -0.031109
      6.04312      9.34377      6.57528         0.093511      0.000218     -0.031109
     11.69978      9.34478      6.66606         0.031396      0.000225     -0.036972
      2.78361      6.58828      5.90948        -0.044035     -0.007483      0.088518
      9.07211      5.87106      5.97786        -0.044173      0.007600      0.088859
      2.78429     12.09887      5.90838        -0.044173      0.007600      0.088859
      9.07143      0.36047      5.97895        -0.044035     -0.007483      0.088518
      2.85340      5.87015     12.28247        -0.044173      0.007600      0.088859
      9.14174      6.58928     12.35229        -0.044035     -0.007483      0.088518
      2.85272      0.35955     12.28356        -0.044035     -0.007483      0.088518
      9.14241     12.09988     12.35119        -0.044173      0.007600      0.088859
    total drift:                                0.007856      0.000388     -0.000846

  FREE ENERGIE OF THE ION-ELECTRON SYSTEM (eV)
  free  energy   TOTEN  =      -479.26533571 eV

  energy  without entropy=     -479.26533571  energy(sigma->0) =     -479.26533571