 vasp.5.3.5 31Mar14 (build Mar 26 2015 15:03:36) complex

 executed on             LinuxIFC date 2015.10.28  11:48:30

 INCAR:
 POTCAR:    PAW_PBE Cd 06Sep2000
 POTCAR:    PAW_PBE Te 08Apr2002

 POTCAR:    PAW_PBE Cd 06Sep2000
   VRHFIN =Cd : s2 d10

   TITEL  = PAW_PBE Cd 06Sep2000
   POMASS =  112.411; ZVAL   =   12.000    mass and valenz
   ENMAX  =  274.336; ENMIN  =  205.752 eV

 POTCAR:    PAW_PBE Te 08Apr2002
   VRHFIN =Te: s2p4

   TITEL  = PAW_PBE Te 08Apr2002
   POMASS =  127.600; ZVAL   =    6.000    mass and valenz
   ENMAX  =  174.982; ENMIN  =  131.236 eV

  PAW_PBE Cd 06Sep2000                  :
  PAW_PBE Te 08Apr2002                  :

 POSCAR: Cd1 Te1
  positions in direct lattice
 exchange correlation table for  LEXCH =        8
   RHO(1)=    0.500       N(1)  =     2000
   RHO(2)=  100.500       N(2)  =     4000

 ion  position               nearest neighbor table
   1  0.000  0.000  0.000-   5 2.80   6 2.80   7 2.80   8 2.80
   2  0.000  0.500  0.500-   5 2.80   6 2.80   7 2.80   8 2.80
   3  0.500  0.000  0.500-   5 2.80   6 2.80   7 2.80   8 2.80
   4  0.500  0.500  0.000-   5 2.80   6 2.80   7 2.80   8 2.80
   5  0.250  0.250  0.250-   1 2.80   2 2.80   3 2.80   4 2.80
   6  0.750  0.750  0.250-   1 2.80   2 2.80   3 2.80   4 2.80
   7  0.750  0.250  0.750-   1 2.80   2 2.80   3 2.80   4 2.80
   8  0.250  0.750  0.750-   1 2.80   2 2.80   3 2.80   4 2.80

  LATTYP: Found a simple cubic cell.
 ALAT       =     6.4759998322

  Lattice vectors:

 A1 = (   6.4759998322,   0.0000000000,   0.0000000000)
 A2 = (   0.0000000000,   6.4759998322,   0.0000000000)
 A3 = (   0.0000000000,   0.0000000000,   6.4759998322)

Analysis of symmetry for initial positions (statically):
 Subroutine PRICEL returns following result:

  LATTYP: Found a face centered cubic cell.
 ALAT       =     6.4759998322

[...]

   4 primitive cells build up your supercell.

 Routine SETGRP: Setting up the symmetry group for a
 simple cubic supercell.

 Subroutine GETGRP returns: Found 24 space group operations
 (whereof 24 operations were pure point group operations)
 out of a pool of 48 trial point group operations.

The static configuration has the point symmetry T_d .

Analysis of symmetry for dynamics (positions and initial velocities):
 Subroutine PRICEL returns following result:

  LATTYP: Found a face centered cubic cell.
 ALAT       =     6.4759998322

  Lattice vectors:

 A1 = (   3.2379999161,   3.2379999161,  -0.0000000000)
 A2 = (   3.2379999161,   0.0000000000,  -3.2379999161)
 A3 = (   0.0000000000,   3.2379999161,  -3.2379999161)

   4 primitive cells build up your supercell.

 Routine SETGRP: Setting up the symmetry group for a
 simple cubic supercell.

 Subroutine GETGRP returns: Found 24 space group operations
 (whereof 24 operations were pure point group operations)
 out of a pool of 48 trial point group operations.

The dynamic configuration has the point symmetry T_d .

 KPOINTS: Automatic mesh

Automatic generation of k-mesh.
Space group operators:
 irot       det(A)        alpha          n_x          n_y          n_z        tau_x        tau_y        tau_z
    1     1.000000     0.000000     1.000000     0.000000     0.000000     0.000000     0.000000     0.000000
    2     1.000000   120.000000    -0.577350    -0.577350    -0.577350     0.000000     0.000000     0.000000
    3     1.000000   120.000000     0.577350     0.577350     0.577350     0.000000     0.000000     0.000000
    4    -1.000000    90.000000     0.000000     0.000000    -1.000000     0.000000     0.000000     0.000000
    5    -1.000000   180.000000     0.000000     0.707107     0.707107     0.000000     0.000000     0.000000
    6    -1.000000    90.000000     0.000000     1.000000     0.000000     0.000000     0.000000     0.000000
    7     1.000000   179.999999     0.000000     0.000000     1.000000     0.000000     0.000000     0.000000
    8     1.000000   120.000000    -0.577350     0.577350     0.577350     0.000000     0.000000     0.000000
    9     1.000000   120.000000    -0.577350     0.577350    -0.577350     0.000000     0.000000     0.000000
   10    -1.000000    90.000000     0.000000     0.000000     1.000000     0.000000     0.000000     0.000000
   11    -1.000000    90.000000    -1.000000     0.000000     0.000000     0.000000     0.000000     0.000000
   12    -1.000000   180.000000     0.707107     0.000000     0.707107     0.000000     0.000000     0.000000
   13     1.000000   120.000000     0.577350    -0.577350     0.577350     0.000000     0.000000     0.000000
   14     1.000000   120.000000    -0.577350    -0.577350     0.577350     0.000000     0.000000     0.000000
   15     1.000000   180.000000     1.000000     0.000000     0.000000     0.000000     0.000000     0.000000
   16    -1.000000    90.000000     0.000000    -1.000000     0.000000     0.000000     0.000000     0.000000
   17    -1.000000   180.000000     0.707107     0.707107     0.000000     0.000000     0.000000     0.000000
   18    -1.000000    90.000000     1.000000     0.000000     0.000000     0.000000     0.000000     0.000000
   19     1.000000   120.000000     0.577350    -0.577350    -0.577350     0.000000     0.000000     0.000000
   20     1.000000   180.000000     0.000000     1.000000     0.000000     0.000000     0.000000     0.000000
   21     1.000000   120.000000     0.577350     0.577350    -0.577350     0.000000     0.000000     0.000000
   22    -1.000000   180.000000     0.000000    -0.707107     0.707107     0.000000     0.000000     0.000000
   23    -1.000000   180.000000     0.707107    -0.707107     0.000000     0.000000     0.000000     0.000000
   24    -1.000000   180.000000     0.707107     0.000000    -0.707107     0.000000     0.000000     0.000000

 Subroutine IBZKPT returns following result:

 Found     10 irreducible k-points:

 Following reciprocal coordinates:
            Coordinates               Weight
  0.000000  0.000000  0.000000      1.000000
  0.250000  0.000000  0.000000      6.000000
  0.500000  0.000000  0.000000      3.000000
  0.250000  0.250000  0.000000     12.000000
  0.500000  0.250000  0.000000     12.000000
  0.500000  0.500000  0.000000      3.000000
  0.250000  0.250000  0.250000      8.000000
  0.500000  0.250000  0.250000     12.000000
  0.500000  0.500000  0.250000      6.000000
  0.500000  0.500000  0.500000      1.000000

 Following cartesian coordinates:
            Coordinates               Weight
  0.000000  0.000000  0.000000      1.000000
  0.038604  0.000000  0.000000      6.000000
  0.077208  0.000000  0.000000      3.000000
  0.038604  0.038604  0.000000     12.000000
  0.077208  0.038604  0.000000     12.000000
  0.077208  0.077208  0.000000      3.000000
  0.038604  0.038604  0.038604      8.000000
  0.077208  0.038604  0.038604     12.000000
  0.077208  0.077208  0.038604      6.000000
  0.077208  0.077208  0.077208      1.000000

 I would recommend the setting:
   dimension x,y,z NGX =    35 NGY =   35 NGZ =   35
 SYSTEM =  Name
 POSCAR =  Cd1 Te1

 Startparameter for this run:
   NWRITE =      2    write-flag & timer
   PREC   = normal    normal or accurate (medium, high low for compatibility)
   ISTART =      0    job   : 0-new  1-cont  2-samecut
   ICHARG =      2    charge: 1-file 2-atom 10-const
   ISPIN  =      1    spin polarized calculation?
   LNONCOLLINEAR =      F non collinear calculations
   LSORBIT =      F    spin-orbit coupling
   INIWAV =      1    electr: 0-lowe 1-rand  2-diag
   LASPH  =      F    aspherical Exc in radial PAW
   METAGGA=      F    non-selfconsistent MetaGGA calc.

 Electronic Relaxation 1
   ENCUT  =  500.0 eV  36.75 Ry    6.06 a.u.  11.81 11.81 11.81*2*pi/ulx,y,z
   ENINI  =  500.0     initial cutoff
   ENAUG  =  456.1 eV  augmentation charge cutoff
   NELM   =     60;   NELMIN=  2; NELMDL=  0     # of ELM steps
   EDIFF  = 0.1E-05   stopping-criterion for ELM
   LREAL  =      F    real-space projection
   NLSPLINE    = F    spline interpolate recip. space projectors
   LCOMPAT=      F    compatible to vasp.4.4
   GGA_COMPAT  = T    GGA compatible to vasp.4.4-vasp.4.6
   LMAXPAW     = -100 max onsite density
   LMAXMIX     =    2 max onsite mixed and CHGCAR
   VOSKOWN=      0    Vosko Wilk Nusair interpolation
   ROPT   =    0.00000   0.00000
 Ionic relaxation
   EDIFFG = -.5E-02   stopping-criterion for IOM
   NSW    =    100    number of steps for IOM
   NBLOCK =      1;   KBLOCK =    100    inner block; outer block
   IBRION =      2    ionic relax: 0-MD 1-quasi-New 2-CG
   NFREE  =      1    steps in history (QN), initial steepest desc. (CG)
   ISIF   =      3    stress and relaxation
   IWAVPR =     11    prediction:  0-non 1-charg 2-wave 3-comb
   ISYM   =      2    0-nonsym 1-usesym 2-fastsym
   LCORR  =      T    Harris-Foulkes like correction to forces

   POTIM  = 0.5000    time-step for ionic-motion
   TEIN   =    0.0    initial temperature
   TEBEG  =    0.0;   TEEND  =   0.0 temperature during run
   SMASS  =  -3.00    Nose mass-parameter (am)
   estimated Nose-frequenzy (Omega)   =  0.10E-29 period in steps =****** mass=  -0.958E-27a.u.
   SCALEE = 1.0000    scale energy and forces
   NPACO  =    256;   APACO  = 16.0  distance and # of slots for P.C.
   PSTRESS=    0.0 pullay stress

  Mass of Ions in am
   POMASS = 112.41127.60
  Ionic Valenz
   ZVAL   =  12.00  6.00
  Atomic Wigner-Seitz radii
  virtual crystal weights
   VCA    =   1.00  1.00
   NELECT =      72.0000    total number of electrons
   NUPDOWN=      -1.0000    fix difference up-down

 DOS related values:
   EMIN   =  10.00;   EMAX   =-10.00  energy-range for DOS
   EFERMI =   0.00
   ISMEAR =     0;   SIGMA  =   0.10  broadening in eV -4-tet -1-fermi 0-gaus

 Electronic relaxation 2 (details)
   IALGO  =     38    algorithm
   LDIAG  =      T    sub-space diagonalisation (order eigenvalues)
   LSUBROT=      F    optimize rotation matrix (better conditioning)
   TURBO    =      0    0=normal 1=particle mesh
   IRESTART =      0    0=no restart 2=restart with 2 vectors
   NREBOOT  =      0    no. of reboots
   NMIN     =      0    reboot dimension
   EREF     =   0.00    reference energy to select bands
   IMIX   =      4    mixing-type and parameters
     AMIX     =   0.40;   BMIX     =  1.00
     AMIX_MAG =   1.60;   BMIX_MAG =  1.00
     AMIN     =   0.01
     WC   =   100.;   INIMIX=   1;  MIXPRE=   1;  MAXMIX= -45

 Intra band minimization:
   WEIMIN = 0.0010     energy-eigenvalue tresh-hold
   EBREAK =  0.52E-08  absolut break condition
   DEPER  =   0.30     relativ break condition

   TIME   =   0.40     timestep for ELM

  volume/ion in A,a.u.               =      33.95       229.10
  Fermi-wavevector in a.u.,A,eV,Ry     =   1.051668  1.987365 15.048132  1.106006
  Thomas-Fermi vector in A             =   2.186721

 Write flags
   LWAVE  =      T    write WAVECAR
   LCHARG =      T    write CHGCAR
   LVTOT  =      F    write LOCPOT, total local potential
   LVHAR  =      F    write LOCPOT, Hartree potential only
   LELF   =      F    write electronic localiz. function (ELF)
   LORBIT =     10    0 simple, 1 ext, 2 COOP (PROOUT)

 Dipole corrections
[...]
       3d   -551.6141  4s   -156.2164  4p   -106.2555  4d    -33.5785
   6-  1s -31612.9042  2s  -4840.4869  2p  -4343.8823  3s   -956.7062  3p   -795.3640
       3d   -551.6141  4s   -156.2164  4p   -106.2555  4d    -33.5785
   7-  1s -31612.9042  2s  -4840.4869  2p  -4343.8823  3s   -956.7062  3p   -795.3640
       3d   -551.6141  4s   -156.2164  4p   -106.2555  4d    -33.5785
   8-  1s -31612.9042  2s  -4840.4869  2p  -4343.8823  3s   -956.7062  3p   -795.3640
       3d   -551.6141  4s   -156.2164  4p   -106.2555  4d    -33.5785

 E-fermi :   2.7639     XC(G=0):  -8.5946     alpha+bet : -7.4457

 k-point     1 :       0.0000    0.0000    0.0000
  band No.  band energies     occupation
      1      -8.8182      2.00000
      2      -8.2990      2.00000
      3      -8.2990      2.00000
      4      -8.2990      2.00000
      5      -5.9267      2.00000
      6      -5.9267      2.00000
      7      -5.9267      2.00000
      8      -5.7704      2.00000
      9      -5.7704      2.00000
     10      -5.7704      2.00000
     11      -5.7619      2.00000
     12      -5.7619      2.00000
     13      -5.7619      2.00000
     14      -5.7619      2.00000
     15      -5.7619      2.00000
     16      -5.7619      2.00000
     17      -5.6648      2.00000
     18      -5.6648      2.00000
     19      -5.6340      2.00000
     20      -5.6340      2.00000
     21      -5.6340      2.00000
     22      -5.1698      2.00000
     23      -5.1698      2.00000
     24      -5.1698      2.00000
     25      -1.9499      2.00000
     26      -1.9499      2.00000
     27      -1.9499      2.00000
     28       0.4963      2.00000
     29       0.4963      2.00000
     30       0.4963      2.00000
     31       0.4963      2.00000
     32       0.4963      2.00000
     33       0.4963      2.00000
     34       2.3685      2.00000
     35       2.3685      2.00000
     36       2.3685      2.00000
     37       3.1465      0.00000
     38       4.9701      0.00000
     39       4.9701      0.00000
     40       4.9701      0.00000
     41       5.0376      0.00000
     42       5.0376      0.00000
     43       5.0376      0.00000
     44       6.9684      0.00000
     45       6.9684      0.00000
     46       6.9684      0.00000
     47       9.8357      0.00000
     48      11.2233      0.00000

[...]

 soft charge-density along one line, spin component           1
         0         1         2         3         4         5         6         7         8         9
 total charge-density along one line

------------------------ aborting loop because EDIFF is reached ----------------------------------------

 total charge

# of ion     s       p       d       tot
  1        0.471   0.319   9.531  10.321
  2        0.471   0.319   9.531  10.321
  3        0.471   0.319   9.531  10.321
  4        0.471   0.319   9.531  10.321
  5        1.350   2.063   0.021   3.434
  6        1.350   2.063   0.021   3.434
  7        1.350   2.063   0.021   3.434
  8        1.350   2.063   0.021   3.434
tot        7.285   9.527  38.209  55.021

  FORCE on cell =-STRESS in cart. coord.  units (eV):
  Direction    XX          YY          ZZ          XY          YZ          ZX
  Alpha Z   201.31243   201.31243   201.31243
  Ewald   -1394.55196 -1394.55196 -1394.55196     0.00000     0.00000    -0.00000
  Hartree   670.71843   670.71843   670.71843    -0.00000    -0.00000    -0.00000
  E(xc)    -349.71911  -349.71911  -349.71911     0.00000     0.00000    -0.00000
  Local     -69.34579   -69.34579   -69.34579     0.00000    -0.00000    -0.00000
  n-local   107.63309   111.79506   108.29244    -2.23330    -1.94207    -0.79498
  augment    25.57806    25.57806    25.57806     0.00000     0.00000    -0.00000
  Kinetic   807.81815   813.93102   812.84383    -2.04442    -2.19575    -0.85496
  Fock        0.00000     0.00000     0.00000     0.00000     0.00000     0.00000
  Total       4.76326     4.76326     4.76326     0.00000    -0.00000    -0.00000
  in kB      28.09923    28.09923    28.09923     0.00000    -0.00000    -0.00000

 VOLUME and BASIS-vectors are now :
  energy-cutoff  :      500.00
  volume of cell :      271.59
      direct lattice vectors                 reciprocal lattice vectors
     6.475999832  0.000000000  0.000000000     0.154416310  0.000000000  0.000000000
     0.000000000  6.475999832  0.000000000     0.000000000  0.154416310  0.000000000
     0.000000000  0.000000000  6.475999832     0.000000000  0.000000000  0.154416310

[...]

 FORCES acting on ions
    electron-ion (+dipol)            ewald-force                    non-local-force                 convergence-correction
   0.121E-13 0.676E-13 -.140E-12   0.711E-14 0.000E+00 -.142E-13   -.130E-16 -.217E-17 -.260E-17   0.360E-13 0.704E-13 -.710E-13
   0.450E-13 0.659E-12 0.447E-12   0.711E-14 0.142E-13 -.142E-13   0.304E-17 -.239E-17 0.390E-17   0.452E-13 0.634E-13 -.833E-13
   0.648E-12 0.717E-13 0.643E-11   0.213E-13 0.000E+00 -.142E-13   0.117E-16 -.759E-17 -.304E-17   0.797E-13 0.695E-13 -.910E-13
   0.664E-12 0.356E-11 0.200E-11   0.213E-13 0.142E-13 -.142E-13   -.104E-16 0.564E-17 -.347E-17   0.672E-13 0.462E-13 -.684E-13
   -.315E-12 0.237E-12 -.865E-13   -.153E-13 -.890E-14 0.134E-13   0.113E-16 0.377E-16 -.104E-16   -.510E-13 0.359E-14 -.605E-13
   -.392E-12 0.155E-12 -.136E-12   -.154E-13 -.721E-14 0.134E-13   -.234E-16 -.195E-16 0.278E-16   -.538E-14 0.337E-13 -.605E-13
   -.469E-12 0.582E-12 -.725E-12   -.118E-13 -.701E-14 0.152E-13   -.260E-17 -.104E-16 -.113E-16   -.713E-14 0.333E-14 -.335E-13
   -.298E-12 0.353E-13 -.130E-12   -.140E-13 -.531E-14 0.152E-13   -.781E-17 0.156E-16 0.234E-16   -.567E-13 0.280E-13 -.348E-13
   -.104E-12 0.537E-11 0.766E-11   0.229E-15 -.153E-16 0.355E-15   -.312E-16 0.169E-16 0.243E-16   0.108E-12 0.318E-12 -.503E-12

 POSITION                                       TOTAL-FORCE (eV/Angst)
      0.00000      0.00000      0.00000         0.000000      0.000000      0.000000
      0.00000      3.23800      3.23800         0.000000     -0.000000     -0.000000
      3.23800      0.00000      3.23800        -0.000000     -0.000000      0.000000
      3.23800      3.23800      0.00000         0.000000     -0.000000     -0.000000
      1.61900      1.61900      1.61900        -0.000000      0.000000     -0.000000
      4.85700      4.85700      1.61900        -0.000000      0.000000     -0.000000
      4.85700      1.61900      4.85700        -0.000000      0.000000     -0.000000
      1.61900      4.85700      4.85700        -0.000000      0.000000     -0.000000
    total drift:                                0.000000      0.000000      0.000000

  FREE ENERGIE OF THE ION-ELECTRON SYSTEM (eV)
  free  energy   TOTEN  =       -19.08571924 eV

  energy  without entropy=      -19.08571924  energy(sigma->0) =      -19.08571924

[...]

 d Force = 0.0000000E+00[ 0.000E+00, 0.000E+00]  d Energy = 0.1469313E+00-0.147E+00
 d Force = 0.0000000E+00[ 0.000E+00, 0.000E+00]  d Ewald  =-0.1168159E+03 0.117E+03

 Steepest descent step on ions:
 trial-energy change:   -0.146931  1 .order   -0.157727   -0.410460    0.095006
  (g-gl).g = 0.410E+00      g.g   = 0.410E+00  gl.gl    = 0.000E+00
 g(Force)  = 0.205E-56   g(Stress)= 0.410E+00 ortho     = 0.000E+00
 gamma     =   0.00000
 trial     =   1.00000
 opt step  =   0.79085  (harmonic =   0.81204) maximal distance =0.00000000
 next E    =   -19.242685   (d E  =  -0.15697)

 FEWALD executed in parallel

[...]

 eigenvalue-minimisations  :  1048
 total energy-change (2. order) : 0.7014390E-05  (-0.3104926E-05)
 number of electron      71.9999863 magnetization
 augmentation part       18.3451401 magnetization

[...]

 Broyden mixing:
  rms(total) = 0.60462E-03    rms(broyden)= 0.60462E-03
  rms(prec ) = 0.64139E-03
  weight for this iteration     100.00

 eigenvalues of (default mixing * dielectric matrix)
  average eigenvalue GAMMA=   1.6457
  2.5097  2.5097  1.7114  1.7114  1.0640  1.0640  0.9494

[...]

----------------------------------------- Iteration    3(   9)  ---------------------------------------

 eigenvalue-minimisations  :   664
 total energy-change (2. order) :-0.1227909E-06  (-0.4008024E-07)
 number of electron      71.9999863 magnetization
 augmentation part       18.3454010 magnetization

 Free energy of the ion-electron system (eV)
  alpha Z        PSCENC =       188.19369429
  Ewald energy   TEWEN  =     -4090.72356811
  -Hartree energ DENC   =     -2064.11758785
  -exchange      EXHF   =         0.00000000
  -V(xc)+E(xc)   XCENC  =       -91.16161489
  PAW double counting   =      6761.15851990    -6469.50799470
  entropy T*S    EENTRO =        -0.00000077
  eigenvalues    EBANDS =      -318.87009731
  atomic energy  EATOM  =      6065.78646317
  free energy    TOTEN  =       -19.24218628 eV

  energy without entropy =      -19.24218551  energy(sigma->0) =      -19.24218590

 the core state eigenenergies are
   1-  1s -26514.0259  2s  -3931.1896  2p  -3526.4451  3s   -728.0583  3p   -595.3476
       3d   -387.7985  4s   -100.2340  4p    -61.2910
   2-  1s -26514.0259  2s  -3931.1896  2p  -3526.4451  3s   -728.0583  3p   -595.3476
       3d   -387.7985  4s   -100.2340  4p    -61.2910
   3-  1s -26514.0259  2s  -3931.1896  2p  -3526.4451  3s   -728.0583  3p   -595.3476
       3d   -387.7985  4s   -100.2340  4p    -61.2910
   4-  1s -26514.0259  2s  -3931.1896  2p  -3526.4451  3s   -728.0583  3p   -595.3476
       3d   -387.7985  4s   -100.2340  4p    -61.2910
   5-  1s -31613.4433  2s  -4841.0153  2p  -4344.4123  3s   -957.2170  3p   -795.8750
       3d   -552.1267  4s   -156.6970  4p   -106.7326  4d    -34.0444
   6-  1s -31613.4433  2s  -4841.0153  2p  -4344.4123  3s   -957.2170  3p   -795.8750
       3d   -552.1267  4s   -156.6970  4p   -106.7326  4d    -34.0444
   7-  1s -31613.4433  2s  -4841.0153  2p  -4344.4123  3s   -957.2170  3p   -795.8750
       3d   -552.1267  4s   -156.6970  4p   -106.7326  4d    -34.0444
   8-  1s -31613.4433  2s  -4841.0153  2p  -4344.4123  3s   -957.2170  3p   -795.8750
       3d   -552.1267  4s   -156.6970  4p   -106.7326  4d    -34.0444

 E-fermi :   2.0764     XC(G=0):  -8.2988     alpha+bet : -6.9605

[...]

 k-point    10 :       0.5000    0.5000    0.5000
  band No.  band energies     occupation
      1      -8.7053      2.00000
      2      -8.7053      2.00000
      3      -8.7053      2.00000
      4      -8.7053      2.00000
      5      -6.2532      2.00000
      6      -6.2532      2.00000
      7      -6.2532      2.00000
      8      -6.2532      2.00000
      9      -6.2532      2.00000
     10      -6.2532      2.00000
     11      -6.2532      2.00000
     12      -6.2532      2.00000
     13      -6.0828      2.00000
     14      -6.0828      2.00000
     15      -6.0828      2.00000
     16      -6.0828      2.00000
     17      -6.0828      2.00000
     18      -6.0828      2.00000
     19      -6.0828      2.00000
     20      -6.0828      2.00000
     21      -5.7876      2.00000
     22      -5.7876      2.00000
     23      -5.7876      2.00000
     24      -5.7876      2.00000
     25      -2.2893      2.00000
     26      -2.2893      2.00000
     27      -2.2893      2.00000
     28      -2.2893      2.00000
     29       1.0962      2.00000
     30       1.0962      2.00000
     31       1.0962      2.00000
     32       1.0962      2.00000
     33       1.0962      2.00000
     34       1.0962      2.00000
     35       1.0962      2.00000
     36       1.0962      2.00000
     37       3.5308      0.00000
     38       3.5308      0.00000
     39       3.5308      0.00000
     40       3.5308      0.00000
     41       6.9864      0.00000
     42       6.9864      0.00000
     43       6.9864      0.00000
     44       6.9864      0.00000
     45       6.9864      0.00000
     46       6.9864      0.00000
     47       6.9864      0.00000
     48       6.9864      0.00000

 soft charge-density along one line, spin component           1
         0         1         2         3         4         5         6         7         8         9
 total charge-density along one line

------------------------ aborting loop because EDIFF is reached ----------------------------------------

[...]

  FORCE on cell =-STRESS in cart. coord.  units (eV):
  Direction    XX          YY          ZZ          XY          YZ          ZX
  Alpha Z   188.19369   188.19369   188.19369
  Ewald   -1363.57655 -1363.57655 -1363.57655     0.00000    -0.00000     0.00000
  Hartree   688.03703   688.03703   688.03703    -0.00000    -0.00000    -0.00000
  E(xc)    -348.65136  -348.65136  -348.65136    -0.00000    -0.00000    -0.00000
  Local    -101.62185  -101.62185  -101.62185     0.00000     0.00000    -0.00000
  n-local   101.71471   106.04452   102.79648    -2.22051    -1.90666    -0.78853
  augment    25.15354    25.15354    25.15354     0.00000     0.00000     0.00000
  Kinetic   805.42596   811.30882   810.15380    -2.03435    -2.11941    -0.83714
  Fock        0.00000     0.00000     0.00000     0.00000     0.00000     0.00000
  Total       0.01593     0.01593     0.01593    -0.00000     0.00000     0.00000
  in kB       0.08787     0.08787     0.08787    -0.00000     0.00000     0.00000

 VOLUME and BASIS-vectors are now :
  energy-cutoff  :      500.00
  volume of cell :      290.53
      direct lattice vectors                 reciprocal lattice vectors
     6.623110574  0.000000000 -0.000000000     0.150986457 -0.000000000 -0.000000000
     0.000000000  6.623110574 -0.000000000    -0.000000000  0.150986457  0.000000000
     0.000000000 -0.000000000  6.623110574     0.000000000  0.000000000  0.150986457

  length of vectors
     6.623110574  6.623110574  6.623110574     0.150986457  0.150986457  0.150986457

 FORCES acting on ions
    electron-ion (+dipol)            ewald-force                    non-local-force                 convergence-correction
   0.343E-13 0.713E-13 -.121E-12   -.568E-13 -.213E-13 -.711E-14   0.260E-17 -.238E-17 0.390E-17   0.801E-13 0.367E-13 -.160E-12
   0.300E-13 0.628E-12 0.450E-12   -.568E-13 -.213E-13 0.711E-14   0.867E-18 -.325E-18 -.130E-17   0.802E-13 0.830E-13 -.909E-13
   0.599E-12 0.754E-13 0.637E-11   -.568E-13 -.213E-13 0.711E-14   0.867E-18 0.314E-17 0.217E-17   0.169E-12 0.578E-13 -.876E-13
   0.620E-12 0.356E-11 0.201E-11   -.568E-13 -.213E-13 -.711E-14   0.954E-17 0.217E-18 0.304E-17   0.168E-12 0.960E-13 -.166E-12
   0.130E-12 0.267E-12 -.631E-13   0.633E-13 0.206E-13 -.631E-15   -.269E-16 0.282E-16 -.269E-16   0.207E-13 -.285E-13 0.221E-13
   0.644E-13 0.222E-12 -.184E-12   0.506E-13 0.220E-13 -.640E-15   -.286E-16 -.134E-16 -.182E-16   0.265E-13 -.137E-13 0.204E-13
   0.451E-13 0.586E-12 -.643E-12   0.500E-13 0.209E-13 0.548E-15   0.260E-16 0.694E-17 -.269E-16   0.270E-13 -.303E-13 -.155E-13
   0.112E-12 0.550E-13 -.873E-13   0.636E-13 0.222E-13 0.540E-15   -.156E-16 0.954E-17 -.234E-16   0.219E-13 -.117E-13 -.150E-13
   0.163E-11 0.547E-11 0.774E-11   0.147E-15 0.428E-15 -.183E-15   -.312E-16 0.319E-16 -.876E-16   0.594E-12 0.189E-12 -.493E-12

 POSITION                                       TOTAL-FORCE (eV/Angst)
      0.00000      0.00000      0.00000         0.000000      0.000000     -0.000000
      0.00000      3.31156      3.31156        -0.000000      0.000000      0.000000
      3.31156     -0.00000      3.31156         0.000000      0.000000      0.000000
      3.31156      3.31156     -0.00000        -0.000000     -0.000000     -0.000000
      1.65578      1.65578      1.65578         0.000000     -0.000000      0.000000
      4.96733      4.96733      1.65578         0.000000     -0.000000      0.000000
      4.96733      1.65578      4.96733         0.000000     -0.000000      0.000000
      1.65578      4.96733      4.96733        -0.000000     -0.000000      0.000000
    total drift:                                0.000000      0.000000      0.000000

  FREE ENERGIE OF THE ION-ELECTRON SYSTEM (eV)
  free  energy   TOTEN  =       -19.24218628 eV

  energy  without entropy=      -19.24218551  energy(sigma->0) =      -19.24218590

 d Force = 0.0000000E+00[ 0.000E+00, 0.000E+00]  d Energy = 0.9535717E-02-0.954E-02
 d Force = 0.0000000E+00[ 0.000E+00, 0.000E+00]  d Ewald  = 0.2388982E+02-0.239E+02

 reached required accuracy - stopping structural energy minimisation
 writing wavefunctions

 total charge

# of ion     s       p       d       tot
  1        0.462   0.282   9.533  10.277
  2        0.462   0.282   9.533  10.277
  3        0.462   0.282   9.533  10.277
  4        0.462   0.282   9.533  10.277
  5        1.353   2.031   0.017   3.402
  6        1.353   2.031   0.017   3.402
  7        1.353   2.031   0.017   3.402
  8        1.353   2.031   0.017   3.402
tot        7.260   9.252  38.201  54.713