 vasp.5.3.5 31Mar14 (build Apr 15 2015 10:45:18) complex

 executed on             LinuxIFC date 2016.02.16  16:29:58

 INCAR:
 POTCAR:   PAW Cu_pv 19Apr2000
 POTCAR:   PAW Zn 03Mar1998
 POTCAR:   PAW Sn_d 09Feb1998
 POTCAR:   PAW S 21Jan2003

 POTCAR:   PAW Cu_pv 19Apr2000
   VRHFIN =Cu: d10 p1

   TITEL  = PAW Cu_pv 19Apr2000
   POMASS =   63.546; ZVAL   =   17.000    mass and valenz
   ENMAX  =  368.406; ENMIN  =  276.305 eV
   QCUT   =   -5.204; QGAM   =   10.407    optimization parameters

   Description
     l     E      TYP  RCUT    TYP  RCUT
     1   .000     23  1.700
     1  -.100     23  1.700
     2   .000     23  2.000
     2   .000     23  2.000
     0   .000     23  1.800
     0   .000     23  1.800
     3   .000      7   .000

 POTCAR:   PAW Zn 03Mar1998
   VRHFIN =Zn: d10 p2

   TITEL  = PAW Zn 03Mar1998
   POMASS =   65.390; ZVAL   =   12.000    mass and valenz
   ENMAX  =  276.847; ENMIN  =  207.636 eV
   QCUT   =   -4.511; QGAM   =    9.022    optimization parameters

[...]

 POTCAR:   PAW Sn_d 09Feb1998
   VRHFIN =Sn: s2p2

   TITEL  = PAW Sn_d 09Feb1998
   POMASS =  118.710; ZVAL   =   14.000    mass and valenz
   ENMAX  =  241.107; ENMIN  =  180.830 eV
   QCUT   =   -4.210; QGAM   =    8.419    optimization parameters

[...]

 POTCAR:   PAW S 21Jan2003
   VRHFIN =S : s2p4

   TITEL  = PAW S 21Jan2003
   POMASS =   32.066; ZVAL   =    6.000    mass and valenz
   ENMAX  =  280.000; ENMIN  =  193.952 eV
   QCUT   =   -4.360; QGAM   =    8.719    optimization parameters

   Description
     l     E      TYP  RCUT    TYP  RCUT
     0   .000     23  1.900
     0   .000     23  1.900
     1   .000     23  1.900
     1   .000     23  1.900
     2   .000      7  1.900

 PAW Cu_pv 19Apr2000                    :
 PAW Zn 03Mar1998                       :
 PAW Sn_d 09Feb1998                     :
 PAW S 21Jan2003                        :

 POSCAR: Cu2ZnSnS4 (LaFond 2014, 293 K)
  positions in direct lattice
 exchange correlation table for  LEXCH =        2
   RHO(1)=    0.500       N(1)  =     2000
   RHO(2)=  100.500       N(2)  =     4000

 ion  position               nearest neighbor table
   1  0.000  0.000  0.000-   5 2.32   6 2.32   7 2.32   8 2.32
   2  0.750  0.250  0.500-   8 2.32   6 2.32   7 2.32   5 2.32
   3  0.500  0.500  0.000-   8 2.35   6 2.35   7 2.35   5 2.35
   4  0.250  0.750  0.500-   8 2.42   6 2.42   7 2.42   5 2.42
   5  0.118  0.134  0.244-   1 2.32   2 2.32   3 2.35   4 2.42
   6  0.639  0.623  0.244-   1 2.32   2 2.32   3 2.35   4 2.42
   7  0.866  0.361  0.756-   1 2.32   2 2.32   3 2.35   4 2.42
   8  0.377  0.882  0.756-   1 2.32   2 2.32   3 2.35   4 2.42

  LATTYP: Found a body centered tetragonal cell.
 ALAT       =     5.4353000000
 C/A-ratio  =     1.9955400000

  Lattice vectors:

 A1 = (   2.7176500000,  -2.7176500000,   5.4231792810)
 A2 = (  -2.7176500000,   2.7176500000,   5.4231792810)
 A3 = (  -2.7176500000,  -2.7176500000,  -5.4231792810)

Analysis of symmetry for initial positions (statically):
 Subroutine PRICEL returns:
 Original cell was already a primitive cell.

 Routine SETGRP: Setting up the symmetry group for a
 body centered tetragonal supercell.

 Subroutine GETGRP returns: Found  4 space group operations
 (whereof  4 operations were pure point group operations)
 out of a pool of 16 trial point group operations.

The static configuration has the point symmetry S_4 .

Analysis of symmetry for dynamics (positions and initial velocities):
 Subroutine PRICEL returns:
 Original cell was already a primitive cell.

 Routine SETGRP: Setting up the symmetry group for a
 body centered tetragonal supercell.

 Subroutine GETGRP returns: Found  4 space group operations
 (whereof  4 operations were pure point group operations)
 out of a pool of 16 trial point group operations.

The dynamic configuration has the point symmetry S_4 .

 KPOINTS: Automatic mesh

Automatic generation of k-mesh.
Space group operators:
 irot       det(A)        alpha          n_x          n_y          n_z        tau_x        tau_y        tau_z
    1     1.000000     0.000000     1.000000     0.000000     0.000000     0.000000     0.000000     0.000000
    2    -1.000000    90.000000     0.000000     0.000000    -1.000000     0.000000     0.000000     0.000000
    3     1.000000   180.000000     0.000000     0.000000     1.000000     0.000000     0.000000     0.000000
    4    -1.000000    90.000000     0.000000     0.000000     1.000000     0.000000     0.000000     0.000000

 Subroutine IBZKPT returns following result:

 Found     51 irreducible k-points:

 Following reciprocal coordinates:
            Coordinates               Weight
  0.000000  0.000000  0.000000      1.000000
  0.166667  0.000000  0.000000      4.000000
  0.333333  0.000000  0.000000      4.000000
  0.500000  0.000000  0.000000      4.000000
  0.166667  0.166667  0.000000      2.000000
  0.333333  0.166667  0.000000      4.000000
  0.500000  0.166667  0.000000      4.000000
 -0.333333  0.166667  0.000000      2.000000
 -0.166667  0.166667  0.000000      2.000000
  0.166667  0.333333  0.000000      4.000000
  0.333333  0.333333  0.000000      2.000000
  0.500000  0.333333 -0.000000      4.000000
 -0.333333  0.333333  0.000000      2.000000
 -0.166667  0.333333  0.000000      2.000000
  0.166667  0.500000  0.000000      4.000000
  0.333333  0.500000 -0.000000      4.000000
  0.500000  0.500000  0.000000      2.000000
  0.000000  0.000000  0.250000      2.000000
  0.166667  0.000000  0.250000      4.000000
  0.333333  0.000000  0.250000      4.000000
  0.500000  0.000000  0.250000      4.000000
 -0.333333  0.000000  0.250000      4.000000
 -0.166667  0.000000  0.250000      4.000000
  0.166667  0.166667  0.250000      2.000000
  0.333333  0.166667  0.250000      2.000000
  0.500000  0.166667  0.250000      4.000000
 -0.333333  0.166667  0.250000      2.000000
 -0.166667  0.166667  0.250000      4.000000
  0.166667  0.333333  0.250000      2.000000
  0.333333  0.333333  0.250000      2.000000
  0.500000  0.333333  0.250000      4.000000
 -0.333333  0.333333  0.250000      4.000000
 -0.166667  0.333333  0.250000      2.000000
  0.166667  0.500000  0.250000      4.000000
  0.333333  0.500000  0.250000      4.000000
  0.500000  0.500000  0.250000      2.000000
  0.166667 -0.333333  0.250000      2.000000
 -0.333333 -0.333333  0.250000      2.000000
 -0.166667 -0.333333  0.250000      2.000000
  0.333333 -0.166667  0.250000      2.000000
 -0.333333 -0.166667  0.250000      2.000000
 -0.166667 -0.166667  0.250000      2.000000
  0.000000  0.000000  0.500000      1.000000
  0.166667  0.000000  0.500000      4.000000
  0.333333  0.000000  0.500000      4.000000
  0.166667  0.166667  0.500000      2.000000
 -0.333333  0.166667  0.500000      2.000000
 -0.166667  0.166667  0.500000      2.000000
  0.333333  0.333333  0.500000      2.000000
 -0.333333  0.333333  0.500000      2.000000
 -0.166667  0.333333  0.500000      2.000000

 Following cartesian coordinates:
            Coordinates               Weight
  0.000000  0.000000  0.000000      1.000000
  0.166667  0.000000 -0.083520      4.000000
  0.333333  0.000000 -0.167039      4.000000
  0.500000  0.000000 -0.250559      4.000000
  0.166667  0.166667 -0.167039      2.000000
  0.333333  0.166667 -0.250559      4.000000
  0.500000  0.166667 -0.334078      4.000000
 -0.333333  0.166667  0.083520      2.000000
 -0.166667  0.166667  0.000000      2.000000
  0.166667  0.333333 -0.250559      4.000000
  0.333333  0.333333 -0.334078      2.000000
  0.500000  0.333333 -0.417598      4.000000
 -0.333333  0.333333  0.000000      2.000000
 -0.166667  0.333333 -0.083520      2.000000
  0.166667  0.500000 -0.334078      4.000000
  0.333333  0.500000 -0.417598      4.000000
  0.500000  0.500000 -0.501117      2.000000
  0.000000  0.000000  0.250559      2.000000
  0.166667  0.000000  0.167039      4.000000
  0.333333  0.000000  0.083520      4.000000
  0.500000  0.000000  0.000000      4.000000
 -0.333333  0.000000  0.417598      4.000000
 -0.166667  0.000000  0.334078      4.000000
  0.166667  0.166667  0.083520      2.000000
  0.333333  0.166667  0.000000      2.000000
  0.500000  0.166667 -0.083520      4.000000
 -0.333333  0.166667  0.334078      2.000000
 -0.166667  0.166667  0.250559      4.000000
  0.166667  0.333333  0.000000      2.000000
  0.333333  0.333333 -0.083520      2.000000
  0.500000  0.333333 -0.167039      4.000000
 -0.333333  0.333333  0.250559      4.000000
 -0.166667  0.333333  0.167039      2.000000
  0.166667  0.500000 -0.083520      4.000000
  0.333333  0.500000 -0.167039      4.000000
  0.500000  0.500000 -0.250559      2.000000
  0.166667 -0.333333  0.334078      2.000000
 -0.333333 -0.333333  0.584637      2.000000
 -0.166667 -0.333333  0.501117      2.000000
  0.333333 -0.166667  0.167039      2.000000
 -0.333333 -0.166667  0.501117      2.000000
 -0.166667 -0.166667  0.417598      2.000000
  0.000000  0.000000  0.501117      1.000000
  0.166667  0.000000  0.417598      4.000000
  0.333333  0.000000  0.334078      4.000000
  0.166667  0.166667  0.334078      2.000000
 -0.333333  0.166667  0.584637      2.000000
 -0.166667  0.166667  0.501117      2.000000
  0.333333  0.333333  0.167039      2.000000
 -0.333333  0.333333  0.501117      2.000000
 -0.166667  0.333333  0.417598      2.000000

 I would recommend the setting:
   dimension x,y,z NGX =    40 NGY =   40 NGZ =   48
 SYSTEM =  Name
 POSCAR =  Cu2ZnSnS4 (LaFond 2014, 293 K)

 Startparameter for this run:
   NWRITE =      2    write-flag & timer
   PREC   = accura    normal or accurate (medium, high low for compatibility)
   ISTART =      0    job   : 0-new  1-cont  2-samecut
   ICHARG =      2    charge: 1-file 2-atom 10-const
   ISPIN  =      1    spin polarized calculation?
   LNONCOLLINEAR =      F non collinear calculations
   LSORBIT =      F    spin-orbit coupling
   INIWAV =      1    electr: 0-lowe 1-rand  2-diag
   LASPH  =      F    aspherical Exc in radial PAW
   METAGGA=      F    non-selfconsistent MetaGGA calc.

 Electronic Relaxation 1
   ENCUT  =  500.0 eV  36.75 Ry    6.06 a.u.   9.91  9.91 12.12*2*pi/ulx,y,z
   ENINI  =  500.0     initial cutoff
   ENAUG  =  758.2 eV  augmentation charge cutoff
   NELM   =     60;   NELMIN=  2; NELMDL=  0     # of ELM steps
   EDIFF  = 0.1E-05   stopping-criterion for ELM
   LREAL  =      F    real-space projection
   NLSPLINE    = F    spline interpolate recip. space projectors
   LCOMPAT=      F    compatible to vasp.4.4
   GGA_COMPAT  = T    GGA compatible to vasp.4.4-vasp.4.6
   LMAXPAW     = -100 max onsite density
   LMAXMIX     =    2 max onsite mixed and CHGCAR
   VOSKOWN=      0    Vosko Wilk Nusair interpolation
   ROPT   =    0.00000   0.00000   0.00000   0.00000
 Ionic relaxation
   EDIFFG = -.5E-02   stopping-criterion for IOM
   NSW    =      0    number of steps for IOM
   NBLOCK =      1;   KBLOCK =      1    inner block; outer block
   IBRION =     -1    ionic relax: 0-MD 1-quasi-New 2-CG
   NFREE  =      1    steps in history (QN), initial steepest desc. (CG)
   ISIF   =      3    stress and relaxation
   IWAVPR =     10    prediction:  0-non 1-charg 2-wave 3-comb
[...]
   2.71765000  5.43530000  2.71158964
   1.30212853  1.38979311  1.32104849
   4.13317147  4.04550689  1.32104849
   6.76315689  4.01977853  4.10213079
   4.10744311  6.85082147  4.10213079

 k-point  1 :   0.0000 0.0000 0.0000  plane waves:    4055
 k-point  2 :   0.1667 0.0000 0.0000  plane waves:    4054
 k-point  3 :   0.3333 0.0000 0.0000  plane waves:    4078
 k-point  4 :   0.5000 0.0000 0.0000  plane waves:    4072
 k-point  5 :   0.1667 0.1667 0.0000  plane waves:    4054
 k-point  6 :   0.3333 0.1667 0.0000  plane waves:    4071
 k-point  7 :   0.5000 0.1667 0.0000  plane waves:    4069
 k-point  8 :  -0.3333 0.1667 0.0000  plane waves:    4066
 k-point  9 :  -0.1667 0.1667 0.0000  plane waves:    4058
 k-point 10 :   0.1667 0.3333 0.0000  plane waves:    4071
 k-point 11 :   0.3333 0.3333 0.0000  plane waves:    4064
 k-point 12 :   0.5000 0.3333-0.0000  plane waves:    4074
 k-point 13 :  -0.3333 0.3333 0.0000  plane waves:    4068
 k-point 14 :  -0.1667 0.3333 0.0000  plane waves:    4066
 k-point 15 :   0.1667 0.5000 0.0000  plane waves:    4069
 k-point 16 :   0.3333 0.5000-0.0000  plane waves:    4074
 k-point 17 :   0.5000 0.5000 0.0000  plane waves:    4054
 k-point 18 :   0.0000 0.0000 0.2500  plane waves:    4056
 k-point 19 :   0.1667 0.0000 0.2500  plane waves:    4052
 k-point 20 :   0.3333 0.0000 0.2500  plane waves:    4063
 k-point 21 :   0.5000 0.0000 0.2500  plane waves:    4072
 k-point 22 :  -0.3333 0.0000 0.2500  plane waves:    4078
 k-point 23 :  -0.1667 0.0000 0.2500  plane waves:    4068
 k-point 24 :   0.1667 0.1667 0.2500  plane waves:    4060
 k-point 25 :   0.3333 0.1667 0.2500  plane waves:    4064
 k-point 26 :   0.5000 0.1667 0.2500  plane waves:    4070
 k-point 27 :  -0.3333 0.1667 0.2500  plane waves:    4071
 k-point 28 :  -0.1667 0.1667 0.2500  plane waves:    4057
 k-point 29 :   0.1667 0.3333 0.2500  plane waves:    4064
 k-point 30 :   0.3333 0.3333 0.2500  plane waves:    4061
 k-point 31 :   0.5000 0.3333 0.2500  plane waves:    4074
 k-point 32 :  -0.3333 0.3333 0.2500  plane waves:    4055
 k-point 33 :  -0.1667 0.3333 0.2500  plane waves:    4063
 k-point 34 :   0.1667 0.5000 0.2500  plane waves:    4070
 k-point 35 :   0.3333 0.5000 0.2500  plane waves:    4074
 k-point 36 :   0.5000 0.5000 0.2500  plane waves:    4080
 k-point 37 :   0.1667-0.3333 0.2500  plane waves:    4071
 k-point 38 :  -0.3333-0.3333 0.2500  plane waves:    4085
 k-point 39 :  -0.1667-0.3333 0.2500  plane waves:    4082
 k-point 40 :   0.3333-0.1667 0.2500  plane waves:    4063
 k-point 41 :  -0.3333-0.1667 0.2500  plane waves:    4082
 k-point 42 :  -0.1667-0.1667 0.2500  plane waves:    4064
 k-point 43 :   0.0000 0.0000 0.5000  plane waves:    4040
 k-point 44 :   0.1667 0.0000 0.5000  plane waves:    4060
 k-point 45 :   0.3333 0.0000 0.5000  plane waves:    4074
 k-point 46 :   0.1667 0.1667 0.5000  plane waves:    4069
 k-point 47 :  -0.3333 0.1667 0.5000  plane waves:    4077
 k-point 48 :  -0.1667 0.1667 0.5000  plane waves:    4058
 k-point 49 :   0.3333 0.3333 0.5000  plane waves:    4050
 k-point 50 :  -0.3333 0.3333 0.5000  plane waves:    4094
 k-point 51 :  -0.1667 0.3333 0.5000  plane waves:    4077

 maximum and minimum number of plane-waves per node :      1042      982

 maximum number of plane-waves:      4094
 maximum index in each direction:
   IXMAX=   10   IYMAX=   10   IZMAX=   12
   IXMIN=  -10   IYMIN=  -10   IZMIN=  -12

 WARNING: aliasing errors must be expected set NGX to  42 to avoid them
 WARNING: aliasing errors must be expected set NGY to  42 to avoid them
 WARNING: aliasing errors must be expected set NGZ to  50 to avoid them
 aliasing errors are usually negligible using standard VASP settings
 and one can safely disregard these warnings

 parallel 3D FFT for wavefunctions:
    minimum data exchange during FFTs selected (reduces bandwidth)
 parallel 3D FFT for charge:
    minimum data exchange during FFTs selected (reduces bandwidth)

 Broyden mixing: mesh for mixing (old mesh)
   NGX = 19   NGY = 19   NGZ = 25
  (NGX  = 80   NGY  = 80   NGZ  = 96)
  gives a total of   9025 points

 initial charge density was supplied:
 charge density of overlapping atoms calculated
 number of electron      84.0000000 magnetization
 keeping initial charge density in first step

 Maximum index for augmentation-charges         1303 (set IRDMAX)

 First call to EWALD:  gamma=   0.326
 Maximum number of real-space cells 3x 3x 3
 Maximum number of reciprocal cells 3x 3x 3

 FEWALD executed in parallel

----------------------------------------- Iteration    1(   1)  ---------------------------------------

 eigenvalue-minimisations  :  6276
 total energy-change (2. order) : 0.9613752E+03  (-0.4377638E+04)
 number of electron      84.0000000 magnetization
 augmentation part       84.0000000 magnetization

 Free energy of the ion-electron system (eV)
  alpha Z        PSCENC =       249.48649896
  Ewald energy   TEWEN  =     -7155.92568703
  -Hartree energ DENC   =     -5102.48157927
  -exchange      EXHF   =         0.00000000
  -V(xc)+E(xc)   XCENC  =       385.17304659
  PAW double counting   =      9550.31336401   -10071.22682388
  entropy T*S    EENTRO =        -0.00012943
  eigenvalues    EBANDS =        97.63679460
  atomic energy  EATOM  =     13008.39969644
  free energy    TOTEN  =       961.37518098 eV

  energy without entropy =      961.37531041  energy(sigma->0) =      961.37524570

[...]

 eigenvalue-minimisations  :  5336
 total energy-change (2. order) :-0.8640729E+03  (-0.8365743E+03)
 number of electron      84.0000000 magnetization
 augmentation part       84.0000000 magnetization

[...]

 Broyden mixing:
  rms(total) = 0.12012E+01    rms(broyden)= 0.12011E+01
  rms(prec ) = 0.22715E+01
  weight for this iteration     100.00

[...]

 eigenvalues of (default mixing * dielectric matrix)
  average eigenvalue GAMMA=   0.5053
  0.5053

[...]

 eigenvalue-minimisations  :  7048
 total energy-change (2. order) : 0.2069281E-05  (-0.5214383E-05)
 number of electron      83.9999898 magnetization
 augmentation part       33.8963698 magnetization

 Broyden mixing:
  rms(total) = 0.58189E-03    rms(broyden)= 0.58162E-03
  rms(prec ) = 0.95918E-03
  weight for this iteration     100.00

 eigenvalues of (default mixing * dielectric matrix)
  average eigenvalue GAMMA=   1.2987
  2.4851  2.3105  1.6700  1.6700  0.6769  0.6769  0.8753  0.8753  0.4479

[...]

----------------------------------------- Iteration    1(  15)  ---------------------------------------

 eigenvalue-minimisations  :  5664
 total energy-change (2. order) :-0.6402151E-06  (-0.5423092E-06)
 number of electron      83.9999898 magnetization
 augmentation part       33.8963698 magnetization

 Free energy of the ion-electron system (eV)
  alpha Z        PSCENC =       249.48649896
  Ewald energy   TEWEN  =     -7155.92568703
  -Hartree energ DENC   =     -5035.08551581
  -exchange      EXHF   =         0.00000000
  -V(xc)+E(xc)   XCENC  =       384.01892499
  PAW double counting   =      9618.76715952   -10147.87307147
  entropy T*S    EENTRO =        -0.00000000
  eigenvalues    EBANDS =      -959.76658006
  atomic energy  EATOM  =     13008.39969644
  free energy    TOTEN  =       -37.97857447 eV

  energy without entropy =      -37.97857447  energy(sigma->0) =      -37.97857447

 the core state eigenenergies are
   1-  1s  -8798.8778  2s  -1050.3839  2p   -907.5232  3s   -105.5698
   2-  1s  -8798.8942  2s  -1050.3965  2p   -907.5361  3s   -105.5838
   3-  1s  -9469.3677  2s  -1145.2259  2p   -993.7441  3s   -120.0714  3p    -74.8426

   4-  1s -28831.7639  2s  -4350.7218  2p  -3911.1079  3s   -832.3495  3p   -688.1008
       3d   -464.5501  4s   -124.5044  4p    -80.6605
   5-  1s  -2382.4687  2s   -199.9946  2p   -145.8595
   6-  1s  -2382.4687  2s   -199.9946  2p   -145.8595
   7-  1s  -2382.4687  2s   -199.9946  2p   -145.8595
   8-  1s  -2382.4687  2s   -199.9946  2p   -145.8595

 E-fermi :   4.7947     XC(G=0): -10.2353     alpha+bet :-10.1852

 k-point     1 :       0.0000    0.0000    0.0000
  band No.  band energies     occupation
      1     -63.9177      2.00000
      2     -63.8626      2.00000
      3     -63.8626      2.00000
      4     -63.8417      2.00000
      5     -63.8417      2.00000
      6     -63.8343      2.00000
      7     -17.4106      2.00000
      8     -17.4069      2.00000
      9     -17.4069      2.00000
     10     -17.3193      2.00000
     11     -17.3139      2.00000
     12      -9.7091      2.00000
     13      -8.1410      2.00000
     14      -8.1302      2.00000
     15      -8.1302      2.00000
     16      -3.3596      2.00000
     17      -2.4933      2.00000
     18      -2.4239      2.00000
     19      -2.4211      2.00000
     20      -2.4211      2.00000
     21      -2.3235      2.00000
     22      -0.9322      2.00000
     23      -0.2901      2.00000
     24      -0.1870      2.00000
     25       0.2722      2.00000
     26       0.2722      2.00000
     27       0.3008      2.00000
     28       1.0206      2.00000
     29       1.0206      2.00000
     30       1.4796      2.00000
     31       1.4796      2.00000
     32       1.4925      2.00000
     33       2.5836      2.00000
     34       2.6319      2.00000
     35       2.8243      2.00000
     36       3.0792      2.00000
     37       3.1034      2.00000
     38       3.1034      2.00000
     39       3.2616      2.00000
     40       4.6745      2.00000
     41       4.6745      2.00000
     42       4.7497      2.00000
     43       4.9157      0.00000
     44       6.6468      0.00000
     45       7.4754      0.00000
     46       8.4546      0.00000
     47       8.4546      0.00000
     48       9.5397      0.00000
     49       9.6243      0.00000
     50       9.8887      0.00000
     51       9.8887      0.00000
     52      10.2866      0.00000

[...]

 k-point    51 :      -0.1667    0.3333    0.5000
  band No.  band energies     occupation
      1     -63.9177      2.00000
      2     -63.8627      2.00000
      3     -63.8626      2.00000
      4     -63.8418      2.00000
      5     -63.8417      2.00000
      6     -63.8343      2.00000
      7     -17.4112      2.00000
      8     -17.4073      2.00000
      9     -17.4069      2.00000
     10     -17.3188      2.00000
     11     -17.3136      2.00000
     12      -9.0796      2.00000
     13      -8.5932      2.00000
     14      -8.4645      2.00000
     15      -8.2179      2.00000
     16      -3.2824      2.00000
     17      -2.5334      2.00000
     18      -2.4854      2.00000
     19      -2.3959      2.00000
     20      -2.3484      2.00000
     21      -2.1514      2.00000
     22      -1.0724      2.00000
     23      -0.5537      2.00000
     24      -0.2290      2.00000
     25       0.1118      2.00000
     26       0.6438      2.00000
     27       0.8601      2.00000
     28       0.9308      2.00000
     29       1.0079      2.00000
     30       1.3784      2.00000
     31       1.5150      2.00000
     32       1.6213      2.00000
     33       2.7480      2.00000
     34       2.7686      2.00000
     35       2.8501      2.00000
     36       2.9642      2.00000
     37       3.1999      2.00000
     38       3.3390      2.00000
     39       3.5957      2.00000
     40       3.7633      2.00000
     41       3.8732      2.00000
     42       4.2270      2.00000
     43       6.1322      0.00000
     44       7.3685      0.00000
     45       7.7025      0.00000
     46       8.2385      0.00000
     47       8.4096      0.00000
     48       9.3332      0.00000
     49       9.5298      0.00000
     50      10.1671      0.00000
     51      10.5720      0.00000
     52      10.7144      0.00000

 soft charge-density along one line, spin component           1
         0         1         2         3         4         5         6         7         8         9
 total charge-density along one line

------------------------ aborting loop because EDIFF is reached ----------------------------------------

 total charge

# of ion     s       p       d       tot
  1        0.241   6.176   8.963  15.380
  2        0.240   6.173   8.963  15.377
  3        0.541   0.476   9.797  10.814
  4        1.117   1.133  10.107  12.357
  5        1.327   2.362   0.000   3.689
  6        1.328   2.362   0.000   3.689
  7        1.328   2.362   0.000   3.689
  8        1.327   2.361   0.000   3.688
tot        7.449  23.406  37.829  68.684

  FORCE on cell =-STRESS in cart. coord.  units (eV):
  Direction    XX          YY          ZZ          XY          YZ          ZX
  Alpha Z   249.48650   249.48650   249.48650
  Ewald   -2394.86127 -2394.86127 -2366.21278     0.00000     0.00000     0.00000
  Hartree  1668.06722  1668.06722  1698.83938     0.00000     0.00016     0.00014
  E(xc)    -483.81985  -483.81985  -483.81923    -0.00000    -0.00000    -0.00000
  Local    -671.36622  -671.36622  -730.94272     0.00001    -0.00023    -0.00020
  n-local   230.85084   231.01078   231.54586     0.04802    -0.04628     0.11110
  augment   484.27417   484.27417   483.80936     0.00023    -0.00242    -0.00242
  Kinetic   911.55975   913.87165   912.71344    -0.03245    -0.19457    -0.39719
  Fock        0.00000     0.00000     0.00000     0.00000     0.00000     0.00000
  Total      -4.57295    -4.57295    -4.58021     0.00000     0.00000     0.00000
  in kB     -45.73050   -45.73050   -45.80306     0.00000     0.00000     0.00000

 VOLUME and BASIS-vectors are now :
  energy-cutoff  :      500.00
  volume of cell :      160.21
      direct lattice vectors                 reciprocal lattice vectors
     5.435300000  0.000000000  0.000000000     0.183982485  0.000000000 -0.092196841
     0.000000000  5.435300000  0.000000000     0.000000000  0.183982485 -0.092196841
     2.717650000  2.717650000  5.423179281     0.000000000  0.000000000  0.184393683

  length of vectors
     5.435300000  5.435300000  6.646962958     0.205790700  0.205790700  0.184393683

 FORCES acting on ions
    electron-ion (+dipol)            ewald-force                    non-local-force                 convergence-correction
   -.332E-05 -.337E-06 0.811E-06   0.790E-11 -.246E-11 -.851E-11   -.217E-18 0.239E-17 0.000E+00   0.164E-06 -.432E-07 0.256E-07
   0.648E-06 0.342E-05 0.154E-05   -.763E-11 -.242E-11 0.874E-11   0.000E+00 0.000E+00 0.000E+00   0.239E-07 -.646E-07 -.310E-07
   0.210E-05 -.320E-05 -.921E-06   0.543E-11 -.263E-11 0.605E-11   0.217E-18 -.217E-18 0.000E+00   -.366E-07 0.105E-06 0.686E-07
   0.241E-05 -.180E-05 -.988E-06   -.550E-11 -.257E-11 -.620E-11   -.651E-18 -.759E-17 0.000E+00   -.319E-07 0.482E-07 0.194E-07
   -.634E+02 -.739E+01 0.597E+01   0.613E+02 0.840E+01 -.704E+01   0.169E+01 -.820E+00 0.860E+00   -.326E-02 -.867E-03 0.140E-02
   0.634E+02 0.739E+01 0.597E+01   -.613E+02 -.840E+01 -.704E+01   -.169E+01 0.820E+00 0.860E+00   0.326E-02 0.867E-03 0.140E-02
   0.739E+01 -.634E+02 -.597E+01   -.840E+01 0.613E+02 0.704E+01   0.820E+00 0.169E+01 -.860E+00   0.867E-03 -.326E-02 -.140E-02
   -.739E+01 0.634E+02 -.597E+01   0.840E+01 -.613E+02 0.704E+01   -.820E+00 -.169E+01 -.860E+00   -.867E-03 0.326E-02 -.140E-02
   -.193E-04 -.196E-04 0.524E-05   0.178E-14 -.711E-14 -.133E-13   0.222E-15 0.000E+00 0.111E-15   0.101E-06 -.180E-08 -.510E-07

 POSITION                                       TOTAL-FORCE (eV/Angst)
      0.00000      0.00000      0.00000         0.000000     -0.000000     -0.000000
      5.43530      2.71765      2.71159         0.000000     -0.000000     -0.000000
      2.71765      2.71765      0.00000         0.000000     -0.000000     -0.000000
      2.71765      5.43530      2.71159         0.000000     -0.000000     -0.000000
      1.30213      1.38979      1.32105        -0.388666      0.194561     -0.208437
      4.13317      4.04551      1.32105         0.388666     -0.194561     -0.208437
      6.76316      4.01978      4.10213        -0.194561     -0.388666      0.208437
      4.10744      6.85082      4.10213         0.194561      0.388666      0.208437
    total drift:                               -0.000019     -0.000020      0.000005

  FREE ENERGIE OF THE ION-ELECTRON SYSTEM (eV)
  free  energy   TOTEN  =       -37.97857447 eV

  energy  without entropy=      -37.97857447  energy(sigma->0) =      -37.97857447

 writing wavefunctions

 total charge

# of ion     s       p       d       tot
  1        0.241   6.176   8.963  15.380
  2        0.240   6.173   8.963  15.377
  3        0.541   0.476   9.797  10.814
  4        1.117   1.133  10.107  12.357
  5        1.327   2.362   0.000   3.689
  6        1.328   2.362   0.000   3.689
  7        1.328   2.362   0.000   3.689
  8        1.327   2.361   0.000   3.688
tot        7.449  23.406  37.829  68.684