 vasp.5.4.1 24Jun15 (build Nov 12 2015 13:14:48) complex

 executed on             IFC_2016 date 2016.02.23  16:05:26

 INCAR:
 POTCAR:    PAW_PBE Si 05Jan2001

 POTCAR:    PAW_PBE Si 05Jan2001
   VRHFIN =Si: s2p2

   TITEL  = PAW_PBE Si 05Jan2001
   POMASS =   28.085; ZVAL   =    4.000    mass and valenz
   ENMAX  =  245.345; ENMIN  =  184.009 eV

  PAW_PBE Si 05Jan2001                  :

 POSCAR: Si (Madelung Handbook, 295.7K)
  positions in direct lattice
  velocities in cartesian coordinates
 exchange correlation table for  LEXCH =       14
   RHO(1)=    0.500       N(1)  =     2000
   RHO(2)=  100.500       N(2)  =     4000

 ion  position               nearest neighbor table
   1  0.000  0.000  0.000-   2 2.35   2 2.35   2 2.35   2 2.35
   2  0.250  0.250  0.250-   1 2.35   1 2.35   1 2.35   1 2.35

  LATTYP: Found a face centered cubic cell.
 ALAT       =     5.4310000000

  Lattice vectors:

 A1 = (   2.7155000000,   2.7155000000,   0.0000000000)
 A2 = (   2.7155000000,   0.0000000000,  -2.7155000000)
 A3 = (   0.0000000000,   2.7155000000,  -2.7155000000)

Analysis of symmetry for initial positions (statically):
 Subroutine PRICEL returns:
 Original cell was already a primitive cell.

 Routine SETGRP: Setting up the symmetry group for a
 face centered cubic supercell.

 Subroutine GETGRP returns: Found 48 space group operations
 (whereof 24 operations were pure point group operations)
 out of a pool of 48 trial point group operations.

The static configuration has the point symmetry T_d .
 The point group associated with its full space group is O_h .

Analysis of symmetry for dynamics (positions and initial velocities):
 Subroutine PRICEL returns:
 Original cell was already a primitive cell.

 Routine SETGRP: Setting up the symmetry group for a
 face centered cubic supercell.

 Subroutine GETGRP returns: Found 48 space group operations
 (whereof 24 operations were pure point group operations)
 out of a pool of 48 trial point group operations.

The dynamic configuration has the point symmetry T_d .
 The point group associated with its full space group is O_h .

 Subroutine INISYM returns: Found 48 space group operations
 (whereof 24 operations are pure point group operations),
 and found     1 'primitive' translations

 KPOINTS: Automatically generated mesh
  k-points in reciprocal lattice
Space group operators:
 irot       det(A)        alpha          n_x          n_y          n_z        tau_x        tau_y        tau_z
    1     1.000000     0.000001     1.000000     0.000000     0.000000     0.000000     0.000000     0.000000
    2     1.000000   120.000000    -0.577350    -0.577350     0.577350     0.000000     0.000000     0.000000
    3     1.000000   120.000000     0.577350     0.577350    -0.577350     0.000000     0.000000     0.000000
    4    -1.000000    90.000000    -1.000000     0.000000     0.000000     0.000000     0.000000     0.000000
    5    -1.000000   180.000000     0.707107     0.707107     0.000000     0.000000     0.000000     0.000000
    6    -1.000000    90.000000     0.000000     1.000000     0.000000     0.000000     0.000000     0.000000
    7     1.000000   180.000000     1.000000     0.000000     0.000000     0.000000     0.000000     0.000000
    8     1.000000   120.000000     0.577350     0.577350     0.577350     0.000000     0.000000     0.000000
    9     1.000000   120.000000    -0.577350     0.577350     0.577350     0.000000     0.000000     0.000000
   10    -1.000000    90.000000     1.000000     0.000000     0.000000     0.000000     0.000000     0.000000
   11    -1.000000    90.000000     0.000000     0.000000     1.000000     0.000000     0.000000     0.000000
   12    -1.000000   180.000000     0.707107     0.000000    -0.707107     0.000000     0.000000     0.000000
   13     1.000000   120.000000     0.577350    -0.577350    -0.577350     0.000000     0.000000     0.000000
   14     1.000000   120.000000     0.577350    -0.577350     0.577350     0.000000     0.000000     0.000000
   15     1.000000   180.000000     0.000000     0.000000     1.000000     0.000000     0.000000     0.000000
   16    -1.000000    90.000000     0.000000    -1.000000     0.000000     0.000000     0.000000     0.000000
   17    -1.000000   180.000000     0.000000    -0.707107     0.707107     0.000000     0.000000     0.000000
   18    -1.000000    90.000000     0.000000     0.000000    -1.000000     0.000000     0.000000     0.000000
   19     1.000000   120.000000    -0.577350    -0.577350    -0.577350     0.000000     0.000000     0.000000
   20     1.000000   180.000000     0.000000     1.000000     0.000000     0.000000     0.000000     0.000000
   21     1.000000   120.000000    -0.577350     0.577350    -0.577350     0.000000     0.000000     0.000000
   22    -1.000000   180.000000     0.707107    -0.707107     0.000000     0.000000     0.000000     0.000000
   23    -1.000000   180.000000     0.000000     0.707107     0.707107     0.000000     0.000000     0.000000
   24    -1.000000   180.000000     0.707107     0.000000     0.707107     0.000000     0.000000     0.000000
   25    -1.000000     0.000001     1.000000     0.000000     0.000000     0.250000     0.250000     0.250000
   26    -1.000000   120.000000    -0.577350    -0.577350     0.577350     0.250000     0.250000     0.250000
   27    -1.000000   120.000000     0.577350     0.577350    -0.577350     0.250000     0.250000     0.250000
   28     1.000000    90.000000    -1.000000     0.000000     0.000000     0.250000     0.250000     0.250000
   29     1.000000   180.000000     0.707107     0.707107     0.000000     0.250000     0.250000     0.250000
   30     1.000000    90.000000     0.000000     1.000000     0.000000     0.250000     0.250000     0.250000
   31    -1.000000   180.000000     1.000000     0.000000     0.000000     0.250000     0.250000     0.250000
   32    -1.000000   120.000000     0.577350     0.577350     0.577350     0.250000     0.250000     0.250000
   33    -1.000000   120.000000    -0.577350     0.577350     0.577350     0.250000     0.250000     0.250000
   34     1.000000    90.000000     1.000000     0.000000     0.000000     0.250000     0.250000     0.250000
   35     1.000000    90.000000     0.000000     0.000000     1.000000     0.250000     0.250000     0.250000
   36     1.000000   180.000000     0.707107     0.000000    -0.707107     0.250000     0.250000     0.250000
   37    -1.000000   120.000000     0.577350    -0.577350    -0.577350     0.250000     0.250000     0.250000
   38    -1.000000   120.000000     0.577350    -0.577350     0.577350     0.250000     0.250000     0.250000
   39    -1.000000   180.000000     0.000000     0.000000     1.000000     0.250000     0.250000     0.250000
   40     1.000000    90.000000     0.000000    -1.000000     0.000000     0.250000     0.250000     0.250000
   41     1.000000   180.000000     0.000000    -0.707107     0.707107     0.250000     0.250000     0.250000
   42     1.000000    90.000000     0.000000     0.000000    -1.000000     0.250000     0.250000     0.250000
   43    -1.000000   120.000000    -0.577350    -0.577350    -0.577350     0.250000     0.250000     0.250000
   44    -1.000000   180.000000     0.000000     1.000000     0.000000     0.250000     0.250000     0.250000
   45    -1.000000   120.000000    -0.577350     0.577350    -0.577350     0.250000     0.250000     0.250000
   46     1.000000   180.000000     0.707107    -0.707107     0.000000     0.250000     0.250000     0.250000
   47     1.000000   180.000000     0.000000     0.707107     0.707107     0.250000     0.250000     0.250000
   48     1.000000   180.000000     0.707107     0.000000     0.707107     0.250000     0.250000     0.250000

 I would recommend the setting:
   dimension x,y,z NGX =    28 NGY =   28 NGZ =   28
 SYSTEM =  Name
 POSCAR =  Si (Madelung Handbook, 295.7K)

 Startparameter for this run:
   NWRITE =      2    write-flag & timer
   PREC   = accura    normal or accurate (medium, high low for compatibility)
   ISTART =      0    job   : 0-new  1-cont  2-samecut
   ICHARG =     11    charge: 1-file 2-atom 10-const
   ISPIN  =      1    spin polarized calculation?
   LNONCOLLINEAR =      F non collinear calculations
   LSORBIT =      F    spin-orbit coupling
   INIWAV =      1    electr: 0-lowe 1-rand  2-diag
   LASPH  =      F    aspherical Exc in radial PAW
   METAGGA=      F    non-selfconsistent MetaGGA calc.

 Electronic Relaxation 1
   ENCUT  =  500.0 eV  36.75 Ry    6.06 a.u.   7.00  7.00  7.00*2*pi/ulx,y,z
   ENINI  =  500.0     initial cutoff
   ENAUG  =  322.1 eV  augmentation charge cutoff
   NELM   =     60;   NELMIN=  2; NELMDL=  0     # of ELM steps
   EDIFF  = 0.1E-05   stopping-criterion for ELM
   LREAL  =      F    real-space projection
   NLSPLINE    = F    spline interpolate recip. space projectors
   LCOMPAT=      F    compatible to vasp.4.4
   GGA_COMPAT  = T    GGA compatible to vasp.4.4-vasp.4.6
   LMAXPAW     = -100 max onsite density
   LMAXMIX     =    2 max onsite mixed and CHGCAR
   VOSKOWN=      0    Vosko Wilk Nusair interpolation
   ROPT   =    0.00000
 Ionic relaxation
   EDIFFG = -.5E-02   stopping-criterion for IOM
   NSW    =      1    number of steps for IOM
   NBLOCK =      1;   KBLOCK =      1    inner block; outer block
   IBRION =      2    ionic relax: 0-MD 1-quasi-New 2-CG
   NFREE  =      1    steps in history (QN), initial steepest desc. (CG)
   ISIF   =      3    stress and relaxation
   IWAVPR =     11    prediction:  0-non 1-charg 2-wave 3-comb
   ISYM   =      2    0-nonsym 1-usesym 2-fastsym
   LCORR  =      T    Harris-Foulkes like correction to forces

   POTIM  = 0.5000    time-step for ionic-motion
   TEIN   =    0.0    initial temperature
   TEBEG  =    0.0;   TEEND  =   0.0 temperature during run
   SMASS  =  -3.00    Nose mass-parameter (am)
   estimated Nose-frequenzy (Omega)   =  0.10E-29 period in steps =****** mass=  -0.337E-27a.u.
   SCALEE = 1.0000    scale energy and forces
   NPACO  =    256;   APACO  = 16.0  distance and # of slots for P.C.
   PSTRESS=    0.0 pullay stress

  Mass of Ions in am
   POMASS =  28.09
  Ionic Valenz
   ZVAL   =   4.00
  Atomic Wigner-Seitz radii
  virtual crystal weights
   VCA    =   1.00
   NELECT =       8.0000    total number of electrons
   NUPDOWN=      -1.0000    fix difference up-down

 DOS related values:
   EMIN   =  10.00;   EMAX   =-10.00  energy-range for DOS
   EFERMI =   0.00
   ISMEAR =     0;   SIGMA  =   0.01  broadening in eV -4-tet -1-fermi 0-gaus

 Electronic relaxation 2 (details)
   IALGO  =     38    algorithm
   LDIAG  =      T    sub-space diagonalisation (order eigenvalues)
   LSUBROT=      F    optimize rotation matrix (better conditioning)
   TURBO    =      0    0=normal 1=particle mesh
   IRESTART =      0    0=no restart 2=restart with 2 vectors
   NREBOOT  =      0    no. of reboots
   NMIN     =      0    reboot dimension
   EREF     =   0.00    reference energy to select bands
   IMIX   =      4    mixing-type and parameters
     AMIX     =   0.40;   BMIX     =  1.00
     AMIX_MAG =   1.60;   BMIX_MAG =  1.00
     AMIN     =   0.01
[...]
   0.00000000  0.00000000  0.00000000
   0.25000000  0.25000000  0.25000000

 position of ions in cartesian coordinates  (Angst):
   0.00000000  0.00000000  0.00000000
   1.35775000  1.35775000 -1.35775000

 k-point  1 :   0.0000 0.0000 0.0000  plane waves:     965
 k-point  2 :   0.1667 0.0000 0.0000  plane waves:     989
 k-point  3 :   0.3333 0.0000 0.0000  plane waves:    1008
 k-point  4 :   0.5000 0.0000 0.0000  plane waves:    1008
 k-point  5 :   0.1667 0.1667 0.0000  plane waves:     998
 k-point  6 :   0.3333 0.1667 0.0000  plane waves:    1011
 k-point  7 :   0.5000 0.1667 0.0000  plane waves:    1017
 k-point  8 :  -0.3333 0.1667 0.0000  plane waves:    1019
 k-point  9 :  -0.1667 0.1667 0.0000  plane waves:    1013
 k-point 10 :   0.3333 0.3333 0.0000  plane waves:    1018
 k-point 11 :   0.5000 0.3333 0.0000  plane waves:    1012
 k-point 12 :  -0.3333 0.3333 0.0000  plane waves:    1015
 k-point 13 :   0.5000 0.5000 0.0000  plane waves:    1034
 k-point 14 :   0.5000 0.3333 0.1667  plane waves:    1032
 k-point 15 :  -0.3333 0.3333 0.1667  plane waves:    1020
 k-point 16 :  -0.3333 0.5000 0.1667  plane waves:    1016
 k-point 17 :   0.0000 0.0000 0.0000  plane waves:     965
 k-point 18 :   0.0050 0.0000 0.0050  plane waves:     965
 k-point 19 :   0.0100 0.0000 0.0100  plane waves:     965
 k-point 20 :   0.0150 0.0000 0.0150  plane waves:     965
 k-point 21 :   0.0200 0.0000 0.0200  plane waves:     965
 k-point 22 :   0.0250 0.0000 0.0250  plane waves:     965
 k-point 23 :   0.0300 0.0000 0.0300  plane waves:     969
 k-point 24 :   0.0350 0.0000 0.0350  plane waves:     981
 k-point 25 :   0.0400 0.0000 0.0400  plane waves:     981
 k-point 26 :   0.0450 0.0000 0.0450  plane waves:     981
 k-point 27 :   0.0500 0.0000 0.0500  plane waves:     990
 k-point 28 :   0.0550 0.0000 0.0550  plane waves:     990
 k-point 29 :   0.0600 0.0000 0.0600  plane waves:     990
 k-point 30 :   0.0650 0.0000 0.0650  plane waves:     990
 k-point 31 :   0.0700 0.0000 0.0700  plane waves:     990
 k-point 32 :   0.0750 0.0000 0.0750  plane waves:     990
 k-point 33 :   0.0800 0.0000 0.0800  plane waves:     990
 k-point 34 :   0.0850 0.0000 0.0850  plane waves:    1002
 k-point 35 :   0.0900 0.0000 0.0900  plane waves:    1002
 k-point 36 :   0.0950 0.0000 0.0950  plane waves:    1002
 k-point 37 :   0.1000 0.0000 0.1000  plane waves:    1002
 k-point 38 :   0.1050 0.0000 0.1050  plane waves:    1002
 k-point 39 :   0.1100 0.0000 0.1100  plane waves:    1002
 k-point 40 :   0.1150 0.0000 0.1150  plane waves:    1002
 k-point 41 :   0.1200 0.0000 0.1200  plane waves:    1002
 k-point 42 :   0.1250 0.0000 0.1250  plane waves:     994
 k-point 43 :   0.1300 0.0000 0.1300  plane waves:     994
 k-point 44 :   0.1350 0.0000 0.1350  plane waves:     994
 k-point 45 :   0.1400 0.0000 0.1400  plane waves:     994
 k-point 46 :   0.1450 0.0000 0.1450  plane waves:     994
 k-point 47 :   0.1500 0.0000 0.1500  plane waves:     994
 k-point 48 :   0.1550 0.0000 0.1550  plane waves:     998
 k-point 49 :   0.1600 0.0000 0.1600  plane waves:     998
 k-point 50 :   0.1650 0.0000 0.1650  plane waves:     998
 k-point 51 :   0.1700 0.0000 0.1700  plane waves:     998
 k-point 52 :   0.1750 0.0000 0.1750  plane waves:     998
 k-point 53 :   0.1800 0.0000 0.1800  plane waves:     998
 k-point 54 :   0.1850 0.0000 0.1850  plane waves:     998
 k-point 55 :   0.1900 0.0000 0.1900  plane waves:     998
 k-point 56 :   0.1950 0.0000 0.1950  plane waves:     998
 k-point 57 :   0.2000 0.0000 0.2000  plane waves:     998
 k-point 58 :   0.2050 0.0000 0.2050  plane waves:     998
 k-point 59 :   0.2100 0.0000 0.2100  plane waves:     998
 k-point 60 :   0.2150 0.0000 0.2150  plane waves:     998
[...]
 k-point 85 :   0.3400 0.0000 0.3400  plane waves:    1026
 k-point 86 :   0.3450 0.0000 0.3450  plane waves:    1026
 k-point 87 :   0.3500 0.0000 0.3500  plane waves:    1026
 k-point 88 :   0.3550 0.0000 0.3550  plane waves:    1026
 k-point 89 :   0.3600 0.0000 0.3600  plane waves:    1026
 k-point 90 :   0.3650 0.0000 0.3650  plane waves:    1026
 k-point 91 :   0.3700 0.0000 0.3700  plane waves:    1026
 k-point 92 :   0.3750 0.0000 0.3750  plane waves:    1026
 k-point 93 :   0.3800 0.0000 0.3800  plane waves:    1026
 k-point 94 :   0.3850 0.0000 0.3850  plane waves:    1026
 k-point 95 :   0.3900 0.0000 0.3900  plane waves:    1030
 k-point 96 :   0.3950 0.0000 0.3950  plane waves:    1022
 k-point 97 :   0.4000 0.0000 0.4000  plane waves:    1022
 k-point 98 :   0.4050 0.0000 0.4050  plane waves:    1018
 k-point 99 :   0.4100 0.0000 0.4100  plane waves:    1018
 k-point ** :   0.4150 0.0000 0.4150  plane waves:    1018
 k-point ** :   0.4200 0.0000 0.4200  plane waves:    1010
 k-point ** :   0.4250 0.0000 0.4250  plane waves:    1010
 k-point ** :   0.4300 0.0000 0.4300  plane waves:    1010
 k-point ** :   0.4350 0.0000 0.4350  plane waves:    1010
 k-point ** :   0.4400 0.0000 0.4400  plane waves:    1010
 k-point ** :   0.4450 0.0000 0.4450  plane waves:    1010
 k-point ** :   0.4500 0.0000 0.4500  plane waves:    1014
 k-point ** :   0.4550 0.0000 0.4550  plane waves:    1014
 k-point ** :   0.4600 0.0000 0.4600  plane waves:    1014
 k-point ** :   0.4650 0.0000 0.4650  plane waves:    1014
 k-point ** :   0.4700 0.0000 0.4700  plane waves:    1014
 k-point ** :   0.4750 0.0000 0.4750  plane waves:    1018
 k-point ** :   0.4800 0.0000 0.4800  plane waves:    1018
 k-point ** :   0.4850 0.0000 0.4850  plane waves:    1018
 k-point ** :   0.4900 0.0000 0.4900  plane waves:    1018
 k-point ** :   0.4950 0.0000 0.4950  plane waves:    1018
 k-point ** :   0.5000 0.0000 0.5000  plane waves:    1034
 k-point ** :   0.5000 0.0064 0.5032  plane waves:    1020
 k-point ** :   0.5000 0.0128 0.5064  plane waves:    1017
 k-point ** :   0.5000 0.0192 0.5096  plane waves:    1017
 k-point ** :   0.5000 0.0256 0.5128  plane waves:    1016
 k-point ** :   0.5000 0.0321 0.5160  plane waves:    1016
 k-point ** :   0.5000 0.0385 0.5192  plane waves:    1015
 k-point ** :   0.5000 0.0449 0.5224  plane waves:    1015
 k-point ** :   0.5000 0.0513 0.5256  plane waves:    1014
 k-point ** :   0.5000 0.0577 0.5288  plane waves:    1013
 k-point ** :   0.5000 0.0641 0.5321  plane waves:    1012
 k-point ** :   0.5000 0.0705 0.5353  plane waves:    1012
 k-point ** :   0.5000 0.0769 0.5385  plane waves:    1012
 k-point ** :   0.5000 0.0833 0.5417  plane waves:    1011
 k-point ** :   0.5000 0.0897 0.5449  plane waves:    1011
 k-point ** :   0.5000 0.0962 0.5481  plane waves:    1013
 k-point ** :   0.5000 0.1026 0.5513  plane waves:    1013
 k-point ** :   0.5000 0.1090 0.5545  plane waves:    1016
 k-point ** :   0.5000 0.1154 0.5577  plane waves:    1017
 k-point ** :   0.5000 0.1218 0.5609  plane waves:    1019
 k-point ** :   0.5000 0.1282 0.5641  plane waves:    1018
 k-point ** :   0.5000 0.1346 0.5673  plane waves:    1019
 k-point ** :   0.5000 0.1410 0.5705  plane waves:    1019
 k-point ** :   0.5000 0.1474 0.5737  plane waves:    1018
 k-point ** :   0.5000 0.1538 0.5769  plane waves:    1017
 k-point ** :   0.5000 0.1603 0.5801  plane waves:    1021
 k-point ** :   0.5000 0.1667 0.5833  plane waves:    1019
 k-point ** :   0.5000 0.1731 0.5865  plane waves:    1019
 k-point ** :   0.5000 0.1795 0.5897  plane waves:    1020
 k-point ** :   0.5000 0.1859 0.5929  plane waves:    1017
 k-point ** :   0.5000 0.1923 0.5962  plane waves:    1016
 k-point ** :   0.5000 0.1987 0.5994  plane waves:    1015
 k-point ** :   0.5000 0.2051 0.6026  plane waves:    1016
 k-point ** :   0.5000 0.2115 0.6058  plane waves:    1016
 k-point ** :   0.5000 0.2179 0.6090  plane waves:    1017
 k-point ** :   0.5000 0.2244 0.6122  plane waves:    1017
 k-point ** :   0.5000 0.2308 0.6154  plane waves:    1018
 k-point ** :   0.5000 0.2372 0.6186  plane waves:    1017
 k-point ** :   0.5000 0.2436 0.6218  plane waves:    1018
 k-point ** :   0.5000 0.2500 0.6250  plane waves:    1019
 k-point ** :   0.4958 0.2542 0.6292  plane waves:    1021
 k-point ** :   0.4917 0.2583 0.6333  plane waves:    1022
 k-point ** :   0.4875 0.2625 0.6375  plane waves:    1021
[...]
 k-point ** :   0.4186 0.4186 0.6628  plane waves:    1016
 k-point ** :   0.4157 0.4157 0.6686  plane waves:    1016
 k-point ** :   0.4128 0.4128 0.6744  plane waves:    1020
 k-point ** :   0.4099 0.4099 0.6802  plane waves:    1019
 k-point ** :   0.4070 0.4070 0.6860  plane waves:    1017
 k-point ** :   0.4041 0.4041 0.6919  plane waves:    1017
 k-point ** :   0.4012 0.4012 0.6977  plane waves:    1015
 k-point ** :   0.3983 0.3983 0.7035  plane waves:    1017
 k-point ** :   0.3953 0.3953 0.7093  plane waves:    1021
 k-point ** :   0.3924 0.3924 0.7151  plane waves:    1013
 k-point ** :   0.3895 0.3895 0.7209  plane waves:    1015
 k-point ** :   0.3866 0.3866 0.7267  plane waves:    1013
 k-point ** :   0.3837 0.3837 0.7326  plane waves:    1013
 k-point ** :   0.3808 0.3808 0.7384  plane waves:    1013
 k-point ** :   0.3779 0.3779 0.7442  plane waves:    1013

 maximum and minimum number of plane-waves per node :      1036      965

 maximum number of plane-waves:      1036
 maximum index in each direction:
   IXMAX=    7   IYMAX=    7   IZMAX=    7
   IXMIN=   -7   IYMIN=   -7   IZMIN=   -7

 WARNING: aliasing errors must be expected set NGX to  30 to avoid them
 WARNING: aliasing errors must be expected set NGY to  30 to avoid them
 WARNING: aliasing errors must be expected set NGZ to  30 to avoid them
 aliasing errors are usually negligible using standard VASP settings
 and one can safely disregard these warnings

 serial   3D FFT for wavefunctions
 parallel 3D FFT for charge:
    minimum data exchange during FFTs selected (reduces bandwidth)

 initial charge density was supplied:
 number of electron       8.0000001 magnetization
 keeping initial charge density in first step

 Maximum index for augmentation-charges         1501 (set IRDMAX)

 First call to EWALD:  gamma=   0.518
 Maximum number of real-space cells 3x 3x 3
 Maximum number of reciprocal cells 3x 3x 3

 FEWALD executed in parallel

----------------------------------------- Iteration    1(   1)  ---------------------------------------

 eigenvalue-minimisations  : 19120
 total energy-change (2. order) :-0.1429274E+01  (-0.3433548E+03)
 number of electron       8.0000001 magnetization
 augmentation part        8.0000001 magnetization

 Free energy of the ion-electron system (eV)
  alpha Z        PSCENC =         3.36228930
  Ewald energy   TEWEN  =      -228.52143995
  -Hartree energ DENC   =       -14.67338014
  -exchange      EXHF   =         0.00000000
  -V(xc)+E(xc)   XCENC  =       -16.84215720
  PAW double counting   =       872.12719759     -837.76694821
  entropy T*S    EENTRO =        -0.00056429
  eigenvalues    EBANDS =        15.73483698
  atomic energy  EATOM  =       205.15089164
  Solvation  Ediel_sol  =         0.00000000
  free energy    TOTEN  =        -1.42927427 eV

  energy without entropy =       -1.42870999  energy(sigma->0) =       -1.42899213

[...]

----------------------------------------- Iteration    1(   6)  ---------------------------------------

 eigenvalue-minimisations  : 35536
 total energy-change (2. order) :-0.3831246E-10  (-0.3828884E-10)
 number of electron       8.0000001 magnetization
 augmentation part        8.0000001 magnetization

 Free energy of the ion-electron system (eV)
  alpha Z        PSCENC =         3.36228930
  Ewald energy   TEWEN  =      -228.52143995
  -Hartree energ DENC   =       -14.67338014
  -exchange      EXHF   =         0.00000000
  -V(xc)+E(xc)   XCENC  =       -16.84215720
  PAW double counting   =       872.12719759     -837.76694821
  entropy T*S    EENTRO =        -0.00000000
  eigenvalues    EBANDS =         5.69603231
  atomic energy  EATOM  =       205.15089164
  Solvation  Ediel_sol  =         0.00000000
  free energy    TOTEN  =       -11.46751466 eV

  energy without entropy =      -11.46751466  energy(sigma->0) =      -11.46751466

 the core state eigenenergies are
   1-  1s  -1773.9257  2s   -127.9430  2p    -83.9662
   2-  1s  -1773.9257  2s   -127.9430  2p    -83.9662

 E-fermi :   5.8478     XC(G=0):  -9.5490     alpha+bet :-11.9779

 k-point     1 :       0.0000    0.0000    0.0000
  band No.  band energies     occupation
      1      -6.1942      2.00000
      2       5.7972      2.00000
      3       5.7972      2.00000
      4       5.7972      2.00000
      5       8.3104      0.00000
      6       8.3104      0.00000
      7       8.3104      0.00000
      8       9.1195      0.00000
      9      13.4809      0.00000
     10      13.4809      0.00000
     11      13.5034      0.00000
     12      16.8877      0.00000
     13      16.8877      0.00000
     14      16.8877      0.00000
     15      20.8784      0.00000
     16      28.7947      0.00000

[...]

 k-point   597 :       0.3779    0.3779    0.7442
  band No.  band energies     occupation
      1      -2.4713      2.00000
      2      -1.4120      2.00000
      3       1.4132      2.00000
      4       3.3716      2.00000
      5       6.9065      0.00000
      6       9.9527      0.00000
      7      13.1356      0.00000
      8      13.6273      0.00000
      9      13.9523      0.00000
     10      14.1905      0.00000
     11      20.4306      0.00000
     12      20.6841      0.00000
     13      21.2224      0.00000
     14      21.3474      0.00000
     15      21.5798      0.00000
     16      22.9027      0.00000

 soft charge-density along one line, spin component           1
         0         1         2         3         4         5         6         7         8         9
 total charge-density along one line

------------------------ aborting loop because EDIFF is reached ----------------------------------------

 total charge

# of ion     s       p       d       tot
  1        0.750   0.942   0.000   1.692
  2        0.750   0.942   0.000   1.692
tot        1.499   1.884   0.000   3.383

  FORCE on cell =-STRESS in cart. coord.  units (eV):
  Direction    XX          YY          ZZ          XY          YZ          ZX
  Alpha Z     3.36229     3.36229     3.36229
  Ewald     -76.17385   -76.17385   -76.17385     0.00000     0.00000    -0.00000
  Hartree     4.89108     4.89108     4.89108     0.00000    -0.00000    -0.00000
  E(xc)     -25.55844   -25.55844   -25.55844     0.00000    -0.00000    -0.00000
  Local     -29.07265   -29.07265   -29.07265     0.00001    -0.00001    -0.00001
  n-local    74.01393    79.73116    78.91474    -1.09020    -2.44510    -0.71045
  augment   -11.48829   -11.48829   -11.48829    -0.00001     0.00001     0.00001
  Kinetic    54.87764    56.36176    58.46051    -0.89961    -3.53462    -0.91368
  Fock        0.00000     0.00000     0.00000     0.00000     0.00000     0.00000
  Total       0.08006     0.08006     0.08006     0.00000     0.00000     0.00000
  in kB       3.20311     3.20311     3.20311     0.00000     0.00000     0.00000

 VOLUME and BASIS-vectors are now :
  energy-cutoff  :      500.00
  volume of cell :       40.05
      direct lattice vectors                 reciprocal lattice vectors
     2.715500000  2.715500000  0.000000000     0.184128153  0.184128153  0.184128153
     2.715500000  0.000000000 -2.715500000     0.184128153 -0.184128153 -0.184128153
     0.000000000  2.715500000 -2.715500000    -0.184128153  0.184128153 -0.184128153

  length of vectors
     3.840296929  3.840296929  3.840296929     0.318919316  0.318919316  0.318919316

 FORCES acting on ions
    electron-ion (+dipol)            ewald-force                    non-local-force                 convergence-correction
   -.162E-07 -.128E-07 0.128E-07   -.234E-14 -.182E-14 0.397E-14   -.729E-16 -.118E-15 0.833E-16   0.105E-08 0.105E-08 -.105E-08
   0.162E-07 0.128E-07 -.128E-07   0.175E-14 0.186E-14 -.406E-14   0.590E-16 0.104E-15 -.763E-16   -.105E-08 -.105E-08 0.105E-08
   -.353E-15 0.232E-14 -.743E-13   -.584E-15 0.335E-16 -.952E-16   -.139E-16 -.139E-16 0.694E-17   -.369E-16 0.462E-14 -.466E-14

 POSITION                                       TOTAL-FORCE (eV/Angst)
      0.00000      0.00000      0.00000         0.000000     -0.000000      0.000000
      1.35775      1.35775     -1.35775        -0.000000      0.000000     -0.000000
    total drift:                               -0.000000      0.000000     -0.000000

  FREE ENERGIE OF THE ION-ELECTRON SYSTEM (eV)
  free  energy   TOTEN  =       -11.46751466 eV

  energy  without entropy=      -11.46751466  energy(sigma->0) =      -11.46751466

 writing wavefunctions

 total charge

# of ion     s       p       d       tot
  1        0.750   0.942   0.000   1.692
  2        0.750   0.942   0.000   1.692
tot        1.499   1.884   0.000   3.383