 vasp.5.4.1 24Jun15 (build Nov 25 2015 16:01:35) complex

 executed on         CrayXC-Intel date 2016.05.24  16:43:19

 INCAR:
 POTCAR:    PAW_PBE Cu_pv 06Sep2000
 POTCAR:    PAW_PBE Zn 06Sep2000
 POTCAR:    PAW_PBE Sn_d 06Sep2000
 POTCAR:    PAW_PBE S 06Sep2000

 POTCAR:    PAW_PBE Cu_pv 06Sep2000
   VRHFIN =Cu: d10 p1

   TITEL  = PAW_PBE Cu_pv 06Sep2000
   POMASS =   63.546; ZVAL   =   17.000    mass and valenz
   ENMAX  =  368.648; ENMIN  =  276.486 eV

 POTCAR:    PAW_PBE Zn 06Sep2000
   VRHFIN =Zn: d10 p2

   TITEL  = PAW_PBE Zn 06Sep2000
   POMASS =   65.390; ZVAL   =   12.000    mass and valenz
   ENMAX  =  276.723; ENMIN  =  207.542 eV

 POTCAR:    PAW_PBE Sn_d 06Sep2000
   VRHFIN =Sn: s2p2

   TITEL  = PAW_PBE Sn_d 06Sep2000
   POMASS =  118.710; ZVAL   =   14.000    mass and valenz
   ENMAX  =  241.083; ENMIN  =  180.812 eV

 POTCAR:    PAW_PBE S 06Sep2000
   VRHFIN =S : s2p4

   TITEL  = PAW_PBE S 06Sep2000
   POMASS =   32.066; ZVAL   =    6.000    mass and valenz
   ENMAX  =  258.689; ENMIN  =  194.016 eV

  PAW_PBE Cu_pv 06Sep2000               :
  PAW_PBE Zn 06Sep2000                  :
  PAW_PBE Sn_d 06Sep2000                :
  PAW_PBE S 06Sep2000                   :

 POSCAR: Cu2ZnSnS4 (LaFond 2014, 293 K)
  positions in direct lattice
  velocities in cartesian coordinates
 exchange correlation table for  LEXCH =       14
   RHO(1)=    0.500       N(1)  =     2000
   RHO(2)=  100.500       N(2)  =     4000

 ion  position               nearest neighbor table
   1  0.000  0.000  0.000-   5 2.32   6 2.32   7 2.32   8 2.32
   2  0.750  0.250  0.500-   8 2.32   6 2.32   7 2.32   5 2.32
   3  0.500  0.500  0.000-   8 2.35   6 2.35   7 2.35   5 2.35
   4  0.250  0.750  0.500-   8 2.42   6 2.42   7 2.42   5 2.42
   5  0.118  0.134  0.244-   1 2.32   2 2.32   3 2.35   4 2.42
   6  0.639  0.623  0.244-   1 2.32   2 2.32   3 2.35   4 2.42
   7  0.866  0.361  0.756-   1 2.32   2 2.32   3 2.35   4 2.42
   8  0.377  0.882  0.756-   1 2.32   2 2.32   3 2.35   4 2.42

  LATTYP: Found a body centered tetragonal cell.
 ALAT       =     5.4353000000
 C/A-ratio  =     1.9955400000

  Lattice vectors:

 A1 = (   2.7176500000,  -2.7176500000,   5.4231792810)
 A2 = (  -2.7176500000,   2.7176500000,   5.4231792810)
 A3 = (  -2.7176500000,  -2.7176500000,  -5.4231792810)

Analysis of symmetry for initial positions (statically):
 Subroutine PRICEL returns:
 Original cell was already a primitive cell.

 Routine SETGRP: Setting up the symmetry group for a
 body centered tetragonal supercell.

 Subroutine GETGRP returns: Found  4 space group operations
 (whereof  4 operations were pure point group operations)
 out of a pool of 16 trial point group operations.

The static configuration has the point symmetry S_4 .

Analysis of symmetry for dynamics (positions and initial velocities):
 Subroutine PRICEL returns:
 Original cell was already a primitive cell.

 Routine SETGRP: Setting up the symmetry group for a
 body centered tetragonal supercell.

 Subroutine GETGRP returns: Found  4 space group operations
 (whereof  4 operations were pure point group operations)
 out of a pool of 16 trial point group operations.

The dynamic configuration has the point symmetry S_4 .

 Subroutine INISYM returns: Found  4 space group operations
 (whereof  4 operations are pure point group operations),
 and found     1 'primitive' translations

 KPOINTS: Automatically generated mesh SCF: 51 to
  k-points in reciprocal lattice
Space group operators:
 irot       det(A)        alpha          n_x          n_y          n_z        tau_x        tau_y        tau_z
    1     1.000000     0.000000     1.000000     0.000000     0.000000     0.000000     0.000000     0.000000
    2    -1.000000    90.000000     0.000000     0.000000    -1.000000     0.000000     0.000000     0.000000
    3     1.000000   179.999999     0.000000     0.000000     1.000000     0.000000     0.000000     0.000000
    4    -1.000000    90.000000     0.000000     0.000000     1.000000     0.000000     0.000000     0.000000

 I would recommend the setting:
   dimension x,y,z NGX =    40 NGY =   40 NGZ =   48
 SYSTEM =  Name
 POSCAR =  Cu2ZnSnS4 (LaFond 2014, 293 K)

 Startparameter for this run:
   NWRITE =      2    write-flag & timer
   PREC   = accura    normal or accurate (medium, high low for compatibility)
   ISTART =      0    job   : 0-new  1-cont  2-samecut
   ICHARG =     11    charge: 1-file 2-atom 10-const
   ISPIN  =      1    spin polarized calculation?
   LNONCOLLINEAR =      F non collinear calculations
   LSORBIT =      F    spin-orbit coupling
   INIWAV =      1    electr: 0-lowe 1-rand  2-diag
   LASPH  =      F    aspherical Exc in radial PAW
   METAGGA=      F    non-selfconsistent MetaGGA calc.

 Electronic Relaxation 1
   ENCUT  =  500.0 eV  36.75 Ry    6.06 a.u.   9.91  9.91 12.12*2*pi/ulx,y,z
   ENINI  =  500.0     initial cutoff
   ENAUG  =  758.2 eV  augmentation charge cutoff
   NELM   =     60;   NELMIN=  2; NELMDL=  0     # of ELM steps
   EDIFF  = 0.1E-05   stopping-criterion for ELM
   LREAL  =      F    real-space projection
   NLSPLINE    = F    spline interpolate recip. space projectors
   LCOMPAT=      F    compatible to vasp.4.4
   GGA_COMPAT  = T    GGA compatible to vasp.4.4-vasp.4.6
   LMAXPAW     = -100 max onsite density
   LMAXMIX     =    2 max onsite mixed and CHGCAR
   VOSKOWN=      0    Vosko Wilk Nusair interpolation
   ROPT   =    0.00000   0.00000   0.00000   0.00000
 Ionic relaxation
   EDIFFG = -.5E-02   stopping-criterion for IOM
   NSW    =      0    number of steps for IOM
   NBLOCK =      1;   KBLOCK =      1    inner block; outer block
   IBRION =     -1    ionic relax: 0-MD 1-quasi-New 2-CG
   NFREE  =      1    steps in history (QN), initial steepest desc. (CG)
   ISIF   =      3    stress and relaxation
   IWAVPR =     10    prediction:  0-non 1-charg 2-wave 3-comb
   ISYM   =      2    0-nonsym 1-usesym 2-fastsym
   LCORR  =      T    Harris-Foulkes like correction to forces

   POTIM  = 0.5000    time-step for ionic-motion
   TEIN   =    0.0    initial temperature
   TEBEG  =    0.0;   TEEND  =   0.0 temperature during run
   SMASS  =  -3.00    Nose mass-parameter (am)
   estimated Nose-frequenzy (Omega)   =  0.10E-29 period in steps =****** mass=  -0.675E-27a.u.
   SCALEE = 1.0000    scale energy and forces
   NPACO  =    256;   APACO  = 16.0  distance and # of slots for P.C.
   PSTRESS=    0.0 pullay stress

  Mass of Ions in am
   POMASS =  63.55 65.39118.71 32.07
  Ionic Valenz
   ZVAL   =  17.00 12.00 14.00  6.00
  Atomic Wigner-Seitz radii
  virtual crystal weights
   VCA    =   1.00  1.00  1.00  1.00
   NELECT =      84.0000    total number of electrons
   NUPDOWN=      -1.0000    fix difference up-down

 DOS related values:
   EMIN   =  10.00;   EMAX   =-10.00  energy-range for DOS
   EFERMI =   0.00
   ISMEAR =     0;   SIGMA  =   0.01  broadening in eV -4-tet -1-fermi 0-gaus

 Electronic relaxation 2 (details)
   IALGO  =     38    algorithm
   LDIAG  =      T    sub-space diagonalisation (order eigenvalues)
   LSUBROT=      F    optimize rotation matrix (better conditioning)
   TURBO    =      0    0=normal 1=particle mesh
   IRESTART =      0    0=no restart 2=restart with 2 vectors
   NREBOOT  =      0    no. of reboots
   NMIN     =      0    reboot dimension
   EREF     =   0.00    reference energy to select bands
   IMIX   =      4    mixing-type and parameters
     AMIX     =   0.40;   BMIX     =  1.00
     AMIX_MAG =   1.60;   BMIX_MAG =  1.00
     AMIN     =   0.01
     WC   =   100.;   INIMIX=   1;  MIXPRE=   1;  MAXMIX= -45

 Intra band minimization:
   WEIMIN = 0.0000     energy-eigenvalue tresh-hold
   EBREAK =  0.48E-08  absolut break condition
   DEPER  =   0.30     relativ break condition

   TIME   =   0.40     timestep for ELM

  volume/ion in A,a.u.               =      20.03       135.15
  Fermi-wavevector in a.u.,A,eV,Ry     =   1.320082  2.494593 23.709739  1.742617
  Thomas-Fermi vector in A             =   2.449934

 Write flags
   LWAVE  =      T    write WAVECAR
   LCHARG =      T    write CHGCAR
   LVTOT  =      F    write LOCPOT, total local potential
   LVHAR  =      F    write LOCPOT, Hartree potential only
   LELF   =      F    write electronic localiz. function (ELF)
   LORBIT =     10    0 simple, 1 ext, 2 COOP (PROOUT)

 Dipole corrections
   LMONO  =      F    monopole corrections only (constant potential shift)
   LDIPOL =      F    correct potential (dipole corrections)
   IDIPOL =      0    1-x, 2-y, 3-z, 4-all directions
   EPSILON=  1.0000000 bulk dielectric constant

 Core level calculations are selected ICORELEVEL =  1
 Exchange correlation treatment:
   GGA     =    PS    GGA type
   VOSKOWN=      0    Vosko Wilk Nusair interpolation
   LHFCALC =     F    Hartree Fock is set to
   LHFONE  =     F    Hartree Fock one center treatment
   AEXX    =    0.0000 exact exchange contribution

 Linear response parameters
   LEPSILON=     F    determine dielectric tensor
   LRPA    =     F    only Hartree local field effects (RPA)
   LNABLA  =     F    use nabla operator in PAW spheres
   LVEL    =     F    velocity operator in full k-point grid
   LINTERFAST=   F  fast interpolation
   KINTER  =     0    interpolate to denser k-point grid
   CSHIFT  =0.1000    complex shift for real part using Kramers Kronig
   OMEGAMAX=  -1.0    maximum frequency
   DEG_THRESHOLD= 0.2000000E-02 threshold for treating states as degnerate
   RTIME   =    0.100 relaxation time in fs

 Orbital magnetization related:
   ORBITALMAG=     F  switch on orbital magnetization
   LCHIMAG   =     F  perturbation theory with respect to B field
   DQ        =  0.001000  dq finite difference perturbation B field

 Static calculation
 charge density and potential remain constant during run
 non-spin polarized calculation
 Variant of blocked Davidson
 Davidson routine will perform the subspace rotation
 perform sub-space diagonalisation
    after iterative eigenvector-optimisation
 no mixing
 using additional bands           10
 reciprocal scheme for non local part
 use partial core corrections
 calculate Harris-corrections to forces
   (improved forces if not selfconsistent)
 use gradient corrections
 WARNING: stress and forces are not correct
  (second derivative of E(xc) not defined)
 use of overlap-Matrix (Vanderbilt PP)
 Gauss-broadening in eV      SIGMA  =   0.01

  energy-cutoff  :      500.00
  volume of cell :      160.21
      direct lattice vectors                 reciprocal lattice vectors
     5.435300000  0.000000000  0.000000000     0.183982485  0.000000000 -0.092196841
     0.000000000  5.435300000  0.000000000     0.000000000  0.183982485 -0.092196841
     2.717650000  2.717650000  5.423179281     0.000000000  0.000000000  0.184393683

  length of vectors
     5.435300000  5.435300000  6.646962958     0.205790700  0.205790700  0.184393683

 k-points in units of 2pi/SCALE and weight: Automatically generated mesh SCF: 51 to
   0.00000000  0.00000000  0.00000000       0.007
   0.16666667  0.00000000 -0.08351958       0.028
   0.33333333  0.00000000 -0.16703916       0.028
   0.50000000  0.00000000 -0.25055875       0.028
[...]
 k-point ** :   0.0000 0.2077 0.0000  plane waves:    4059
 k-point ** :   0.0000 0.2115 0.0000  plane waves:    4059
 k-point ** :   0.0000 0.2154 0.0000  plane waves:    4059
 k-point ** :   0.0000 0.2192 0.0000  plane waves:    4057
 k-point ** :   0.0000 0.2231 0.0000  plane waves:    4059
 k-point ** :   0.0000 0.2269 0.0000  plane waves:    4056
 k-point ** :   0.0000 0.2308 0.0000  plane waves:    4055
 k-point ** :   0.0000 0.2346 0.0000  plane waves:    4055
 k-point ** :   0.0000 0.2385 0.0000  plane waves:    4056
 k-point ** :   0.0000 0.2423 0.0000  plane waves:    4054
 k-point ** :   0.0000 0.2462 0.0000  plane waves:    4058
 k-point ** :   0.0000 0.2500 0.0000  plane waves:    4062
 k-point ** :   0.0000 0.2538 0.0000  plane waves:    4062
 k-point ** :   0.0000 0.2577 0.0000  plane waves:    4060
 k-point ** :   0.0000 0.2615 0.0000  plane waves:    4058
 k-point ** :   0.0000 0.2654 0.0000  plane waves:    4060
 k-point ** :   0.0000 0.2692 0.0000  plane waves:    4061
 k-point ** :   0.0000 0.2731 0.0000  plane waves:    4063
 k-point ** :   0.0000 0.2769 0.0000  plane waves:    4067
 k-point ** :   0.0000 0.2808 0.0000  plane waves:    4069
 k-point ** :   0.0000 0.2846 0.0000  plane waves:    4069
 k-point ** :   0.0000 0.2885 0.0000  plane waves:    4071
 k-point ** :   0.0000 0.2923 0.0000  plane waves:    4071
 k-point ** :   0.0000 0.2962 0.0000  plane waves:    4073
 k-point ** :   0.0000 0.3000 0.0000  plane waves:    4073
 k-point ** :   0.0000 0.3038 0.0000  plane waves:    4073
 k-point ** :   0.0000 0.3077 0.0000  plane waves:    4073
 k-point ** :   0.0000 0.3115 0.0000  plane waves:    4075
 k-point ** :   0.0000 0.3154 0.0000  plane waves:    4075
 k-point ** :   0.0000 0.3192 0.0000  plane waves:    4073
 k-point ** :   0.0000 0.3231 0.0000  plane waves:    4073
 k-point ** :   0.0000 0.3269 0.0000  plane waves:    4074
 k-point ** :   0.0000 0.3308 0.0000  plane waves:    4080
 k-point ** :   0.0000 0.3346 0.0000  plane waves:    4076
 k-point ** :   0.0000 0.3385 0.0000  plane waves:    4079
 k-point ** :   0.0000 0.3423 0.0000  plane waves:    4079
 k-point ** :   0.0000 0.3462 0.0000  plane waves:    4080
 k-point ** :   0.0000 0.3500 0.0000  plane waves:    4078
 k-point ** :   0.0000 0.3538 0.0000  plane waves:    4078
 k-point ** :   0.0000 0.3577 0.0000  plane waves:    4078
 k-point ** :   0.0000 0.3615 0.0000  plane waves:    4080
 k-point ** :   0.0000 0.3654 0.0000  plane waves:    4082
 k-point ** :   0.0000 0.3692 0.0000  plane waves:    4084
 k-point ** :   0.0000 0.3731 0.0000  plane waves:    4082
 k-point ** :   0.0000 0.3769 0.0000  plane waves:    4082
 k-point ** :   0.0000 0.3808 0.0000  plane waves:    4080
 k-point ** :   0.0000 0.3846 0.0000  plane waves:    4080
 k-point ** :   0.0000 0.3885 0.0000  plane waves:    4078
 k-point ** :   0.0000 0.3923 0.0000  plane waves:    4078
 k-point ** :   0.0000 0.3962 0.0000  plane waves:    4082
 k-point ** :   0.0000 0.4000 0.0000  plane waves:    4082
 k-point ** :   0.0000 0.4038 0.0000  plane waves:    4082
 k-point ** :   0.0000 0.4077 0.0000  plane waves:    4078
 k-point ** :   0.0000 0.4115 0.0000  plane waves:    4076
[...]
 k-point ** :   0.0000 0.0000 0.4340  plane waves:    4060
 k-point ** :   0.0000 0.0000 0.4387  plane waves:    4060
 k-point ** :   0.0000 0.0000 0.4434  plane waves:    4060
 k-point ** :   0.0000 0.0000 0.4481  plane waves:    4060
 k-point ** :   0.0000 0.0000 0.4528  plane waves:    4056
 k-point ** :   0.0000 0.0000 0.4575  plane waves:    4056
 k-point ** :   0.0000 0.0000 0.4623  plane waves:    4056
 k-point ** :   0.0000 0.0000 0.4670  plane waves:    4056
 k-point ** :   0.0000 0.0000 0.4717  plane waves:    4056
 k-point ** :   0.0000 0.0000 0.4764  plane waves:    4060
 k-point ** :   0.0000 0.0000 0.4811  plane waves:    4052
 k-point ** :   0.0000 0.0000 0.4858  plane waves:    4044
 k-point ** :   0.0000 0.0000 0.4906  plane waves:    4044
 k-point ** :   0.0000 0.0000 0.4953  plane waves:    4044
 k-point ** :   0.0000 0.0000 0.5000  plane waves:    4040

 maximum and minimum number of plane-waves per node :       703      650

 maximum number of plane-waves:      4094
 maximum index in each direction:
   IXMAX=   10   IYMAX=   10   IZMAX=   12
   IXMIN=  -10   IYMIN=  -10   IZMIN=  -12

 WARNING: aliasing errors must be expected set NGX to  42 to avoid them
 WARNING: aliasing errors must be expected set NGY to  42 to avoid them
 WARNING: aliasing errors must be expected set NGZ to  50 to avoid them
 aliasing errors are usually negligible using standard VASP settings
 and one can safely disregard these warnings

 parallel 3D FFT for wavefunctions:
    minimum data exchange during FFTs selected (reduces bandwidth)
 parallel 3D FFT for charge:
    minimum data exchange during FFTs selected (reduces bandwidth)

 initial charge density was supplied:
 number of electron      83.9999897 magnetization
 keeping initial charge density in first step

 Maximum index for augmentation-charges         1037 (set IRDMAX)

 First call to EWALD:  gamma=   0.326
 Maximum number of real-space cells 3x 3x 3
 Maximum number of reciprocal cells 3x 3x 3

 FEWALD executed in parallel

----------------------------------------- Iteration    1(   1)  ---------------------------------------

 eigenvalue-minimisations  : 74600
 total energy-change (2. order) : 0.9624576E+03  (-0.4449018E+04)
 number of electron      83.9999897 magnetization
 augmentation part       83.9999897 magnetization

 Free energy of the ion-electron system (eV)
  alpha Z        PSCENC =       275.46753454
  Ewald energy   TEWEN  =     -7155.92568703
  -Hartree energ DENC   =     -5039.24821403
  -exchange      EXHF   =         0.00000000
  -V(xc)+E(xc)   XCENC  =       383.32731484
  PAW double counting   =     13039.56930228   -13549.22117807
  entropy T*S    EENTRO =        -0.00021425
  eigenvalues    EBANDS =        27.33833221
  atomic energy  EATOM  =     12981.15041703
  Solvation  Ediel_sol  =         0.00000000
  free energy    TOTEN  =       962.45760751 eV

  energy without entropy =      962.45782176  energy(sigma->0) =      962.45771464

[...]

 eigenvalue-minimisations  : 62680
 total energy-change (2. order) :-0.8619369E+03  (-0.8362155E+03)
 number of electron      83.9999897 magnetization
 augmentation part       83.9999897 magnetization

[...]

----------------------------------------- Iteration    1(   9)  ---------------------------------------

 eigenvalue-minimisations  : 56136
 total energy-change (2. order) :-0.6652408E-06  (-0.6651798E-06)
 number of electron      83.9999897 magnetization
 augmentation part       83.9999897 magnetization

 Free energy of the ion-electron system (eV)
  alpha Z        PSCENC =       275.46753454
  Ewald energy   TEWEN  =     -7155.92568703
  -Hartree energ DENC   =     -5039.24821403
  -exchange      EXHF   =         0.00000000
  -V(xc)+E(xc)   XCENC  =       383.32731484
  PAW double counting   =     13039.56930228   -13549.22117807
  entropy T*S    EENTRO =        -0.00000000
  eigenvalues    EBANDS =      -970.89634010
  atomic energy  EATOM  =     12981.15041703
  Solvation  Ediel_sol  =         0.00000000
  free energy    TOTEN  =       -35.77685054 eV

  energy without entropy =      -35.77685054  energy(sigma->0) =      -35.77685054

 the core state eigenenergies are
   1-  1s  -8842.9123  2s  -1055.2192  2p   -909.6774  3s   -107.0700
   2-  1s  -8842.9275  2s  -1055.2305  2p   -909.6891  3s   -107.0830
   3-  1s  -9516.8197  2s  -1150.3373  2p   -995.9918  3s   -121.3593  3p    -75.5220

   4-  1s -28998.8071  2s  -4370.2858  2p  -3921.9058  3s   -836.5385  3p   -690.0858
       3d   -464.7957  4s   -125.4840  4p    -81.2664
   5-  1s  -2395.4964  2s   -201.5080  2p   -146.2857
   6-  1s  -2395.4964  2s   -201.5080  2p   -146.2857
   7-  1s  -2395.4964  2s   -201.5080  2p   -146.2857
   8-  1s  -2395.4964  2s   -201.5080  2p   -146.2857

 E-fermi :   4.7175     XC(G=0): -10.0632     alpha+bet : -9.9404

 k-point     1 :       0.0000    0.0000    0.0000
  band No.  band energies     occupation
      1     -64.3059      2.00000
      2     -64.2510      2.00000
      3     -64.2510      2.00000
      4     -64.2284      2.00000
      5     -64.2284      2.00000
      6     -64.2218      2.00000
      7     -17.5219      2.00000
      8     -17.5180      2.00000
      9     -17.5180      2.00000
     10     -17.4281      2.00000
     11     -17.4226      2.00000
     12      -9.8884      2.00000
     13      -8.3354      2.00000
     14      -8.3246      2.00000
     15      -8.3246      2.00000
     16      -3.4615      2.00000
     17      -2.4951      2.00000
     18      -2.4231      2.00000
     19      -2.4211      2.00000
     20      -2.4211      2.00000
     21      -2.3211      2.00000
     22      -1.0513      2.00000
     23      -0.4114      2.00000
     24      -0.3061      2.00000
     25       0.1334      2.00000
     26       0.1334      2.00000
     27       0.1754      2.00000
     28       0.8969      2.00000
     29       0.8969      2.00000
     30       1.3865      2.00000
     31       1.3865      2.00000
     32       1.4054      2.00000
     33       2.5503      2.00000
     34       2.5925      2.00000
     35       2.7931      2.00000
     36       3.0420      2.00000
     37       3.0522      2.00000
     38       3.0522      2.00000
     39       3.2173      2.00000
     40       4.5813      2.00000
     41       4.5813      2.00000
     42       4.6591      2.00000
     43       4.8455      0.00000
     44       6.5587      0.00000
     45       7.4103      0.00000
     46       8.3761      0.00000
     47       8.3761      0.00000
     48       9.4850      0.00000
     49       9.5611      0.00000
     50       9.8139      0.00000
     51       9.8139      0.00000
     52      10.2393      0.00000

[...]

 k-point   601 :       0.0000    0.0000    0.5000
  band No.  band energies     occupation
      1     -64.3058      2.00000
      2     -64.2510      2.00000
      3     -64.2510      2.00000
      4     -64.2284      2.00000
      5     -64.2284      2.00000
      6     -64.2217      2.00000
      7     -17.5221      2.00000
      8     -17.5177      2.00000
      9     -17.5177      2.00000
     10     -17.4282      2.00000
     11     -17.4225      2.00000
     12      -9.4084      2.00000
     13      -9.0129      2.00000
     14      -8.3400      2.00000
     15      -8.3400      2.00000
     16      -3.5215      2.00000
     17      -2.5191      2.00000
     18      -2.4624      2.00000
     19      -2.4624      2.00000
     20      -2.3729      2.00000
     21      -2.0809      2.00000
     22      -1.3391      2.00000
     23       0.0541      2.00000
     24       0.0882      2.00000
     25       0.3710      2.00000
     26       0.4691      2.00000
     27       0.4691      2.00000
     28       0.9443      2.00000
     29       0.9443      2.00000
     30       1.2526      2.00000
     31       1.4075      2.00000
     32       1.4075      2.00000
     33       2.4304      2.00000
     34       2.7033      2.00000
     35       2.7600      2.00000
     36       2.8419      2.00000
     37       3.4439      2.00000
     38       3.5042      2.00000
     39       3.5042      2.00000
     40       3.5720      2.00000
     41       3.7966      2.00000
     42       3.7966      2.00000
     43       6.0701      0.00000
     44       6.6063      0.00000
     45       6.6063      0.00000
     46       6.9841      0.00000
     47       7.8127      0.00000
     48       8.0138      0.00000
     49       8.7709      0.00000
     50       8.8091      0.00000
     51      11.2217      0.00000
     52      11.2217      0.00000

 soft charge-density along one line, spin component           1
         0         1         2         3         4         5         6         7         8         9
 total charge-density along one line

------------------------ aborting loop because EDIFF is reached ----------------------------------------

 total charge

# of ion     s       p       d       tot
  1        0.237   6.176   8.954  15.366
  2        0.236   6.173   8.954  15.363
  3        0.532   0.471   9.796  10.799
  4        1.104   1.123  10.112  12.339
  5        1.322   2.360   0.000   3.682
  6        1.322   2.360   0.000   3.682
  7        1.322   2.359   0.000   3.682
  8        1.322   2.359   0.000   3.681
tot        7.396  23.381  37.817  68.593

  FORCE on cell =-STRESS in cart. coord.  units (eV):
  Direction    XX          YY          ZZ          XY          YZ          ZX
  Alpha Z   275.46753   275.46753   275.46753
  Ewald   -2394.86127 -2394.86127 -2366.21278     0.00000     0.00000     0.00000
  Hartree  1669.45784  1669.45784  1700.25347     0.00000     0.00016     0.00014
  E(xc)    -488.83827  -488.83827  -488.83797    -0.00001     0.00003     0.00003
  Local    -633.41749  -633.41749  -692.96365     0.00036     0.00053     0.00056
  n-local   139.62750   139.70923   140.20822     0.03619    -0.04273     0.07671
  augment   521.06486   521.06486   520.60217    -0.00005    -0.00300    -0.00300
  Kinetic   908.10679   910.38893   909.26184    -0.03294    -0.18973    -0.38886
  Fock        0.00000     0.00000     0.00000     0.00000     0.00000     0.00000
  Total      -2.21058    -2.21058    -2.22116     0.00000     0.00000     0.00000
  in kB     -22.10627   -22.10627   -22.21214     0.00000     0.00000     0.00000

 VOLUME and BASIS-vectors are now :
  energy-cutoff  :      500.00
  volume of cell :      160.21
      direct lattice vectors                 reciprocal lattice vectors
     5.435300000  0.000000000  0.000000000     0.183982485  0.000000000 -0.092196841
     0.000000000  5.435300000  0.000000000     0.000000000  0.183982485 -0.092196841
     2.717650000  2.717650000  5.423179281     0.000000000  0.000000000  0.184393683

  length of vectors
     5.435300000  5.435300000  6.646962958     0.205790700  0.205790700  0.184393683

 FORCES acting on ions
    electron-ion (+dipol)            ewald-force                    non-local-force                 convergence-correction
   -.171E-05 0.112E-05 0.408E-05   0.792E-11 -.246E-11 -.853E-11   0.000E+00 0.130E-17 0.000E+00   -.365E-07 -.759E-07 -.100E-06
   0.215E-05 0.493E-05 0.522E-05   -.757E-11 -.244E-11 0.882E-11   0.000E+00 0.000E+00 0.000E+00   -.461E-07 -.738E-07 -.939E-07
   0.711E-08 -.473E-05 -.200E-05   0.544E-11 -.267E-11 0.605E-11   -.130E-17 0.651E-18 0.000E+00   -.148E-07 0.168E-07 0.512E-08
   0.211E-05 -.236E-05 -.113E-05   -.553E-11 -.253E-11 -.624E-11   -.271E-17 -.271E-17 0.000E+00   -.491E-08 0.124E-07 0.265E-08
   -.632E+02 -.744E+01 0.604E+01   0.613E+02 0.840E+01 -.704E+01   0.157E+01 -.781E+00 0.813E+00   0.213E-02 -.681E-03 0.112E-02
   0.632E+02 0.744E+01 0.604E+01   -.613E+02 -.840E+01 -.704E+01   -.157E+01 0.781E+00 0.813E+00   -.213E-02 0.681E-03 0.112E-02
   0.744E+01 -.632E+02 -.604E+01   -.840E+01 0.613E+02 0.704E+01   0.781E+00 0.157E+01 -.813E+00   0.681E-03 0.213E-02 -.112E-02
   -.744E+01 0.632E+02 -.604E+01   0.840E+01 -.613E+02 0.704E+01   -.781E+00 -.157E+01 -.813E+00   -.681E-03 -.213E-02 -.112E-02
   -.201E-04 -.187E-04 0.104E-04   -.178E-13 -.711E-14 -.888E-15   -.444E-15 0.666E-15 0.000E+00   -.103E-06 -.121E-06 -.188E-06

 POSITION                                       TOTAL-FORCE (eV/Angst)
      0.00000      0.00000      0.00000        -0.000000      0.000000     -0.000000
      5.43530      2.71765      2.71159        -0.000000      0.000000     -0.000000
      2.71765      2.71765      0.00000        -0.000000      0.000000     -0.000000
      2.71765      5.43530      2.71159        -0.000000      0.000000     -0.000000
      1.30213      1.38979      1.32105        -0.371308      0.181567     -0.193086
      4.13317      4.04551      1.32105         0.371308     -0.181567     -0.193086
      6.76316      4.01978      4.10213        -0.181567     -0.371308      0.193086
      4.10744      6.85082      4.10213         0.181567      0.371308      0.193086
    total drift:                               -0.000020     -0.000019      0.000010

  FREE ENERGIE OF THE ION-ELECTRON SYSTEM (eV)
  free  energy   TOTEN  =       -35.77685054 eV

  energy  without entropy=      -35.77685054  energy(sigma->0) =      -35.77685054

 writing wavefunctions

 total charge

# of ion     s       p       d       tot
  1        0.237   6.176   8.954  15.366
  2        0.236   6.173   8.954  15.363
  3        0.532   0.471   9.796  10.799
  4        1.104   1.123  10.112  12.339
  5        1.322   2.360   0.000   3.682
  6        1.322   2.360   0.000   3.682
  7        1.322   2.359   0.000   3.682
  8        1.322   2.359   0.000   3.681
tot        7.396  23.381  37.817  68.593