 vasp.5.4.1 24Jun15 (build Nov 25 2015 16:01:35) complex

 executed on         CrayXC-Intel date 2016.05.14  18:15:06

 INCAR:
 POTCAR:    PAW_PBE Cu_pv 06Sep2000
 POTCAR:    PAW_PBE Zn 06Sep2000
 POTCAR:    PAW_PBE Sn_d 06Sep2000
 POTCAR:    PAW_PBE S 06Sep2000

 POTCAR:    PAW_PBE Cu_pv 06Sep2000
   VRHFIN =Cu: d10 p1

   TITEL  = PAW_PBE Cu_pv 06Sep2000
   POMASS =   63.546; ZVAL   =   17.000    mass and valenz
   ENMAX  =  368.648; ENMIN  =  276.486 eV

 POTCAR:    PAW_PBE Zn 06Sep2000
   VRHFIN =Zn: d10 p2

   TITEL  = PAW_PBE Zn 06Sep2000
   POMASS =   65.390; ZVAL   =   12.000    mass and valenz
   ENMAX  =  276.723; ENMIN  =  207.542 eV

 POTCAR:    PAW_PBE Sn_d 06Sep2000
   VRHFIN =Sn: s2p2

   TITEL  = PAW_PBE Sn_d 06Sep2000
   POMASS =  118.710; ZVAL   =   14.000    mass and valenz
   ENMAX  =  241.083; ENMIN  =  180.812 eV

 POTCAR:    PAW_PBE S 06Sep2000
   VRHFIN =S : s2p4

   TITEL  = PAW_PBE S 06Sep2000
   POMASS =   32.066; ZVAL   =    6.000    mass and valenz
   ENMAX  =  258.689; ENMIN  =  194.016 eV

  PAW_PBE Cu_pv 06Sep2000               :
  PAW_PBE Zn 06Sep2000                  :
  PAW_PBE Sn_d 06Sep2000                :
  PAW_PBE S 06Sep2000                   :

 POSCAR: Cu2ZnSnS4 (LaFond 2014, 293 K)
  positions in direct lattice
  velocities in cartesian coordinates
 exchange correlation table for  LEXCH =        8
   RHO(1)=    0.500       N(1)  =     2000
   RHO(2)=  100.500       N(2)  =     4000

 ion  position               nearest neighbor table
   1  0.000  0.000  0.000-   5 2.32   6 2.32   7 2.32   8 2.32
   2  0.750  0.250  0.500-   8 2.32   6 2.32   7 2.32   5 2.32
   3  0.500  0.500  0.000-   8 2.35   6 2.35   7 2.35   5 2.35
   4  0.250  0.750  0.500-   8 2.42   6 2.42   7 2.42   5 2.42
   5  0.118  0.134  0.244-   1 2.32   2 2.32   3 2.35   4 2.42
   6  0.639  0.623  0.244-   1 2.32   2 2.32   3 2.35   4 2.42
   7  0.866  0.361  0.756-   1 2.32   2 2.32   3 2.35   4 2.42
   8  0.377  0.882  0.756-   1 2.32   2 2.32   3 2.35   4 2.42

  LATTYP: Found a body centered tetragonal cell.
 ALAT       =     5.4353000000
 C/A-ratio  =     1.9955400000

  Lattice vectors:

 A1 = (   2.7176500000,  -2.7176500000,   5.4231792810)
 A2 = (  -2.7176500000,   2.7176500000,   5.4231792810)
 A3 = (  -2.7176500000,  -2.7176500000,  -5.4231792810)

Analysis of symmetry for initial positions (statically):
 Subroutine PRICEL returns:
 Original cell was already a primitive cell.

 Routine SETGRP: Setting up the symmetry group for a
 body centered tetragonal supercell.

 Subroutine GETGRP returns: Found  4 space group operations
 (whereof  4 operations were pure point group operations)
 out of a pool of 16 trial point group operations.

The static configuration has the point symmetry S_4 .

Analysis of symmetry for dynamics (positions and initial velocities):
 Subroutine PRICEL returns:
 Original cell was already a primitive cell.

 Routine SETGRP: Setting up the symmetry group for a
 body centered tetragonal supercell.

 Subroutine GETGRP returns: Found  4 space group operations
 (whereof  4 operations were pure point group operations)
 out of a pool of 16 trial point group operations.

The dynamic configuration has the point symmetry S_4 .

 Subroutine INISYM returns: Found  4 space group operations
 (whereof  4 operations are pure point group operations),
 and found     1 'primitive' translations

 KPOINTS: Automatically generated mesh SCF: 51 to
  k-points in reciprocal lattice
Space group operators:
 irot       det(A)        alpha          n_x          n_y          n_z        tau_x        tau_y        tau_z
    1     1.000000     0.000000     1.000000     0.000000     0.000000     0.000000     0.000000     0.000000
    2    -1.000000    90.000000     0.000000     0.000000    -1.000000     0.000000     0.000000     0.000000
    3     1.000000   179.999999     0.000000     0.000000     1.000000     0.000000     0.000000     0.000000
    4    -1.000000    90.000000     0.000000     0.000000     1.000000     0.000000     0.000000     0.000000

 Subroutine IBZKPT_HF returns following result:

 Found    408 k-points in 1st BZ
 the following    408 k-points will be used (e.g. in the exchange kernel)
 Following reciprocal coordinates:   # in IRBZ
  0.000000  0.000000  0.000000    0.00694444   1 t-inv F
  0.166667  0.000000  0.000000    0.00347222   2 t-inv F
  0.333333  0.000000  0.000000    0.00347222   3 t-inv F
  0.500000  0.000000  0.000000    0.00694444   4 t-inv F
  0.166667  0.166667  0.000000    0.00173611   5 t-inv F
  0.333333  0.166667  0.000000    0.00347222   6 t-inv F
  0.500000  0.166667  0.000000    0.00347222   7 t-inv F
 -0.333333  0.166667  0.000000    0.00173611   8 t-inv F
 -0.166667  0.166667  0.000000    0.00347222   9 t-inv F
  0.166667  0.333333  0.000000    0.00347222  10 t-inv F
  0.333333  0.333333  0.000000    0.00173611  11 t-inv F
  0.500000  0.333333  0.000000    0.00347222  12 t-inv F
 -0.333333  0.333333  0.000000    0.00347222  13 t-inv F
 -0.166667  0.333333  0.000000    0.00173611  14 t-inv F
  0.166667  0.500000  0.000000    0.00347222  15 t-inv F
  0.333333  0.500000  0.000000    0.00347222  16 t-inv F
  0.500000  0.500000  0.000000    0.00694444  17 t-inv F
  0.000000  0.000000  0.250000    0.00694444  18 t-inv F
  0.166667  0.000000  0.250000    0.00347222  19 t-inv F
  0.333333  0.000000  0.250000    0.00347222  20 t-inv F
  0.500000  0.000000  0.250000    0.00694444  21 t-inv F
 -0.333333  0.000000  0.250000    0.00347222  22 t-inv F
 -0.166667  0.000000  0.250000    0.00347222  23 t-inv F
  0.166667  0.166667  0.250000    0.00173611  24 t-inv F
  0.333333  0.166667  0.250000    0.00347222  25 t-inv F
  0.500000  0.166667  0.250000    0.00347222  26 t-inv F
 -0.333333  0.166667  0.250000    0.00173611  27 t-inv F
 -0.166667  0.166667  0.250000    0.00347222  28 t-inv F
  0.166667  0.333333  0.250000    0.00347222  29 t-inv F
  0.333333  0.333333  0.250000    0.00173611  30 t-inv F
  0.500000  0.333333  0.250000    0.00347222  31 t-inv F
 -0.333333  0.333333  0.250000    0.00347222  32 t-inv F
 -0.166667  0.333333  0.250000    0.00173611  33 t-inv F
  0.166667  0.500000  0.250000    0.00347222  34 t-inv F
  0.333333  0.500000  0.250000    0.00347222  35 t-inv F
  0.500000  0.500000  0.250000    0.00694444  36 t-inv F
  0.166667 -0.333333  0.250000    0.00173611  37 t-inv F
 -0.333333 -0.333333  0.250000    0.00173611  38 t-inv F
 -0.166667 -0.333333  0.250000    0.00347222  39 t-inv F
  0.333333 -0.166667  0.250000    0.00173611  40 t-inv F
 -0.333333 -0.166667  0.250000    0.00347222  41 t-inv F
 -0.166667 -0.166667  0.250000    0.00173611  42 t-inv F
  0.000000  0.000000  0.500000    0.00694444  43 t-inv F
  0.166667  0.000000  0.500000    0.00347222  44 t-inv F
  0.333333  0.000000  0.500000    0.00347222  45 t-inv F
  0.166667  0.166667  0.500000    0.00173611  46 t-inv F
 -0.333333  0.166667  0.500000    0.00173611  47 t-inv F
 -0.166667  0.166667  0.500000    0.00347222  48 t-inv F
  0.333333  0.333333  0.500000    0.00173611  49 t-inv F
 -0.333333  0.333333  0.500000    0.00347222  50 t-inv F
 -0.166667  0.333333  0.500000    0.00173611  51 t-inv F
  0.000000  0.000000  0.000000    0.00000000  52 t-inv F
  0.000000  0.029412  0.000000    0.00000000  53 t-inv F
  0.000000  0.058824  0.000000    0.00000000  54 t-inv F
  0.000000  0.088235  0.000000    0.00000000  55 t-inv F
  0.000000  0.117647  0.000000    0.00000000  56 t-inv F
  0.000000  0.147059  0.000000    0.00000000  57 t-inv F
  0.000000  0.176471  0.000000    0.00000000  58 t-inv F
  0.000000  0.205882  0.000000    0.00000000  59 t-inv F
  0.000000  0.235294  0.000000    0.00000000  60 t-inv F
[...]
 -0.166667  0.166667  0.333333    0.00173611  46 t-inv T
  0.166667  0.166667 -0.166667    0.00173611  46 t-inv T
  0.166667 -0.166667  0.333333    0.00173611  46 t-inv T
  0.333333 -0.166667 -0.500000    0.00173611  47 t-inv T
 -0.166667 -0.333333  0.333333    0.00173611  47 t-inv T
 -0.333333  0.166667 -0.666667    0.00173611  47 t-inv T
  0.166667  0.333333  0.833333    0.00173611  47 t-inv T
 -0.333333 -0.333333 -0.500000    0.00173611  49 t-inv T
 -0.333333  0.333333  0.166667    0.00173611  49 t-inv T
  0.333333  0.333333  0.166667    0.00173611  49 t-inv T
  0.333333 -0.333333  0.166667    0.00173611  49 t-inv T
  0.166667 -0.333333 -0.500000    0.00173611  51 t-inv T
 -0.333333 -0.166667  0.166667    0.00173611  51 t-inv T
 -0.166667  0.333333 -0.333333    0.00173611  51 t-inv T
  0.333333  0.166667  0.666667    0.00173611  51 t-inv T

 I would recommend the setting:
   dimension x,y,z NGX =    40 NGY =   40 NGZ =   48
 SYSTEM =  Name
 POSCAR =  Cu2ZnSnS4 (LaFond 2014, 293 K)

 Startparameter for this run:
   NWRITE =      2    write-flag & timer
   PREC   = accura    normal or accurate (medium, high low for compatibility)
   ISTART =      0    job   : 0-new  1-cont  2-samecut
   ICHARG =      2    charge: 1-file 2-atom 10-const
   ISPIN  =      1    spin polarized calculation?
   LNONCOLLINEAR =      F non collinear calculations
   LSORBIT =      F    spin-orbit coupling
   INIWAV =      1    electr: 0-lowe 1-rand  2-diag
   LASPH  =      F    aspherical Exc in radial PAW
   METAGGA=      F    non-selfconsistent MetaGGA calc.

 Electronic Relaxation 1
   ENCUT  =  500.0 eV  36.75 Ry    6.06 a.u.   9.91  9.91 12.12*2*pi/ulx,y,z
   ENINI  =  500.0     initial cutoff
   ENAUG  =  758.2 eV  augmentation charge cutoff
   NELM   =     60;   NELMIN=  2; NELMDL=  0     # of ELM steps
   EDIFF  = 0.1E-05   stopping-criterion for ELM
   LREAL  =      F    real-space projection
   NLSPLINE    = F    spline interpolate recip. space projectors
   LCOMPAT=      F    compatible to vasp.4.4
   GGA_COMPAT  = T    GGA compatible to vasp.4.4-vasp.4.6
   LMAXPAW     = -100 max onsite density
   LMAXMIX     =    2 max onsite mixed and CHGCAR
   VOSKOWN=      0    Vosko Wilk Nusair interpolation
   ROPT   =    0.00000   0.00000   0.00000   0.00000
 Ionic relaxation
   EDIFFG = -.5E-02   stopping-criterion for IOM
   NSW    =      0    number of steps for IOM
   NBLOCK =      1;   KBLOCK =      1    inner block; outer block
   IBRION =     -1    ionic relax: 0-MD 1-quasi-New 2-CG
   NFREE  =      1    steps in history (QN), initial steepest desc. (CG)
   ISIF   =      3    stress and relaxation
   IWAVPR =     10    prediction:  0-non 1-charg 2-wave 3-comb
   ISYM   =      2    0-nonsym 1-usesym 2-fastsym
   LCORR  =      T    Harris-Foulkes like correction to forces

   POTIM  = 0.5000    time-step for ionic-motion
   TEIN   =    0.0    initial temperature
   TEBEG  =    0.0;   TEEND  =   0.0 temperature during run
   SMASS  =  -3.00    Nose mass-parameter (am)
   estimated Nose-frequenzy (Omega)   =  0.10E-29 period in steps =****** mass=  -0.675E-27a.u.
   SCALEE = 1.0000    scale energy and forces
   NPACO  =    256;   APACO  = 16.0  distance and # of slots for P.C.
   PSTRESS=    0.0 pullay stress

  Mass of Ions in am
   POMASS =  63.55 65.39118.71 32.07
  Ionic Valenz
   ZVAL   =  17.00 12.00 14.00  6.00
  Atomic Wigner-Seitz radii
  virtual crystal weights
   VCA    =   1.00  1.00  1.00  1.00
   NELECT =      84.0000    total number of electrons
[...]
 k-point 44 :   0.1667 0.0000 0.5000  plane waves:    4060
 k-point 45 :   0.3333 0.0000 0.5000  plane waves:    4074
 k-point 46 :   0.1667 0.1667 0.5000  plane waves:    4069
 k-point 47 :  -0.3333 0.1667 0.5000  plane waves:    4077
 k-point 48 :  -0.1667 0.1667 0.5000  plane waves:    4058
 k-point 49 :   0.3333 0.3333 0.5000  plane waves:    4050
 k-point 50 :  -0.3333 0.3333 0.5000  plane waves:    4094
 k-point 51 :  -0.1667 0.3333 0.5000  plane waves:    4077
 k-point 52 :   0.0000 0.0000 0.0000  plane waves:    4055
 k-point 53 :   0.0000 0.0294 0.0000  plane waves:    4051
 k-point 54 :   0.0000 0.0588 0.0000  plane waves:    4047
 k-point 55 :   0.0000 0.0882 0.0000  plane waves:    4047
 k-point 56 :   0.0000 0.1176 0.0000  plane waves:    4051
 k-point 57 :   0.0000 0.1471 0.0000  plane waves:    4043
 k-point 58 :   0.0000 0.1765 0.0000  plane waves:    4056
 k-point 59 :   0.0000 0.2059 0.0000  plane waves:    4061
 k-point 60 :   0.0000 0.2353 0.0000  plane waves:    4055
[...]
 k-point 85 :   0.4706 0.5000 0.0000  plane waves:    4058
 k-point 86 :   0.5000 0.5000 0.0000  plane waves:    4054
 k-point 87 :   0.4792 0.4792 0.0000  plane waves:    4064
 k-point 88 :   0.4583 0.4583 0.0000  plane waves:    4072
 k-point 89 :   0.4375 0.4375 0.0000  plane waves:    4087
 k-point 90 :   0.4167 0.4167 0.0000  plane waves:    4082
 k-point 91 :   0.3958 0.3958 0.0000  plane waves:    4082
 k-point 92 :   0.3750 0.3750 0.0000  plane waves:    4073
 k-point 93 :   0.3542 0.3542 0.0000  plane waves:    4068
 k-point 94 :   0.3333 0.3333 0.0000  plane waves:    4064
 k-point 95 :   0.3125 0.3125 0.0000  plane waves:    4063
 k-point 96 :   0.2917 0.2917 0.0000  plane waves:    4070
 k-point 97 :   0.2708 0.2708 0.0000  plane waves:    4068
 k-point 98 :   0.2500 0.2500 0.0000  plane waves:    4051
 k-point 99 :   0.2292 0.2292 0.0000  plane waves:    4057
 k-point ** :   0.2083 0.2083 0.0000  plane waves:    4058
 k-point ** :   0.1875 0.1875 0.0000  plane waves:    4055
 k-point ** :   0.1667 0.1667 0.0000  plane waves:    4054
 k-point ** :   0.1458 0.1458 0.0000  plane waves:    4039
 k-point ** :   0.1250 0.1250 0.0000  plane waves:    4043
 k-point ** :   0.1042 0.1042 0.0000  plane waves:    4045
 k-point ** :   0.0833 0.0833 0.0000  plane waves:    4053
 k-point ** :   0.0625 0.0625 0.0000  plane waves:    4042
 k-point ** :   0.0417 0.0417 0.0000  plane waves:    4043
 k-point ** :   0.0208 0.0208 0.0000  plane waves:    4050
 k-point ** :   0.0000 0.0000 0.0000  plane waves:    4055
 k-point ** :   0.0000 0.0000 0.0385  plane waves:    4043
 k-point ** :   0.0000 0.0000 0.0769  plane waves:    4051
 k-point ** :   0.0000 0.0000 0.1154  plane waves:    4056
 k-point ** :   0.0000 0.0000 0.1538  plane waves:    4040
 k-point ** :   0.0000 0.0000 0.1923  plane waves:    4052
 k-point ** :   0.0000 0.0000 0.2308  plane waves:    4072
 k-point ** :   0.0000 0.0000 0.2692  plane waves:    4048
 k-point ** :   0.0000 0.0000 0.3077  plane waves:    4048
 k-point ** :   0.0000 0.0000 0.3462  plane waves:    4040
 k-point ** :   0.0000 0.0000 0.3846  plane waves:    4036
 k-point ** :   0.0000 0.0000 0.4231  plane waves:    4060
 k-point ** :   0.0000 0.0000 0.4615  plane waves:    4056
 k-point ** :   0.0000 0.0000 0.5000  plane waves:    4040

 maximum and minimum number of plane-waves per node :       712      643

 maximum number of plane-waves:      4094
 maximum index in each direction:
   IXMAX=   10   IYMAX=   10   IZMAX=   12
   IXMIN=  -10   IYMIN=  -10   IZMIN=  -12

 WARNING: aliasing errors must be expected set NGX to  42 to avoid them
 WARNING: aliasing errors must be expected set NGY to  42 to avoid them
 WARNING: aliasing errors must be expected set NGZ to  50 to avoid them
 aliasing errors are usually negligible using standard VASP settings
 and one can safely disregard these warnings

 parallel 3D FFT for wavefunctions:
    minimum data exchange during FFTs selected (reduces bandwidth)
 parallel 3D FFT for charge:
    minimum data exchange during FFTs selected (reduces bandwidth)

 FFT grid for exact exchange (Hartree Fock)
  NGX = 24; NGY = 24; NGZ = 28

 Radii for the augmentation spheres in the non-local exchange
 for species   1 augmentation radius   1.120 (default was   0.830)
       energy cutoff for augmentation   2000.0
 for species   2 augmentation radius   1.285 (default was   0.952)
       energy cutoff for augmentation   2000.0
 for species   3 augmentation radius   1.471 (default was   1.089)
       energy cutoff for augmentation   2000.0
 for species   4 augmentation radius   1.309 (default was   0.970)
       energy cutoff for augmentation   2000.0

 real space projection operators:
  max/ min on nodes  :        159.90        148.02

 Maximum index for augmentation-charges in exchange          221
  SETUP_FOCK is finished

 Broyden mixing: mesh for mixing (old mesh)
   NGX = 19   NGY = 19   NGZ = 25
  (NGX  = 80   NGY  = 80   NGZ  = 96)
  gives a total of   9025 points

 initial charge density was supplied:
 charge density of overlapping atoms calculated
 number of electron      84.0000000 magnetization
 charge density for first step will be calculated from the start-wavefunctions

 Maximum index for augmentation-charges         1037 (set IRDMAX)

 First call to EWALD:  gamma=   0.326
 Maximum number of real-space cells 3x 3x 3
 Maximum number of reciprocal cells 3x 3x 3

 FEWALD executed in parallel

----------------------------------------- Iteration    1(   1)  ---------------------------------------

 eigenvalue-minimisations  : 17864
 total energy-change (2. order) : 0.4855915E+04  (-0.1591286E+05)
 number of electron      84.0000000 magnetization
 augmentation part       84.0000000 magnetization

 Free energy of the ion-electron system (eV)
  alpha Z        PSCENC =       275.46753454
  Ewald energy   TEWEN  =     -7155.92568703
  -Hartree energ DENC   =     -5111.05795514
  -exchange      EXHF   =         0.00000000
  -V(xc)+E(xc)   XCENC  =       287.92794054
  PAW double counting   =     10942.69525277   -11381.18111865
  entropy T*S    EENTRO =        -0.00012809
  eigenvalues    EBANDS =      4022.67775085
  atomic energy  EATOM  =     12975.31123126
  free energy    TOTEN  =      4855.91482106 eV

  energy without entropy =     4855.91494915  energy(sigma->0) =     4855.91488511
  exchange ACFDT corr.  =         0.00000000  see jH, gK, PRB 81, 115126

[...]

 eigenvalue-minimisations  : 14448
 total energy-change (2. order) :-0.3529224E+04  (-0.3452783E+04)
 number of electron      84.0000000 magnetization
 augmentation part       84.0000000 magnetization

[...]

----------------------------------------- Iteration    1(  25)  ---------------------------------------

 eigenvalue-minimisations  :     0
 total energy-change (2. order) :-0.6148930E-06  (-0.2360539E-06)
 number of electron      83.9999897 magnetization
 augmentation part       34.2872489 magnetization

 Free energy of the ion-electron system (eV)
  alpha Z        PSCENC =       275.46753454
  Ewald energy   TEWEN  =     -7155.92568703
  -Hartree energ DENC   =     -5091.50321023
  -exchange      EXHF   =       242.05835492
  -V(xc)+E(xc)   XCENC  =       288.38394496
  PAW double counting   =     13956.67469244   -14404.45127164
  entropy T*S    EENTRO =        -0.00000000
  eigenvalues    EBANDS =     -1124.60204483
  atomic energy  EATOM  =     12975.31123126
  free energy    TOTEN  =       -38.58645563 eV

  energy without entropy =      -38.58645563  energy(sigma->0) =      -38.58645563
  exchange ACFDT corr.  =         0.00000000  see jH, gK, PRB 81, 115126

  average scaling for gradient   0.8034

 the core state eigenenergies are
   1-  1s    -70.4240  2s    -70.6565  2p    -70.6565  3s    -70.6565
   2-  1s    -70.4266  2s    -70.6555  2p    -70.6555  3s    -70.6555
   3-  1s    -27.1791  2s    -27.3061  2p    -27.3061  3s    -27.3061  3p    -27.3061

   4-  1s    -97.2266  2s    -97.2880  2p    -97.2880  3s    -97.2880  3p    -97.2880
       3d    -97.2880  4s    -97.2880  4p    -97.2880
   5-  1s    -83.6933  2s    -83.8758  2p    -83.8758
   6-  1s    -83.6933  2s    -83.8758  2p    -83.8758
   7-  1s    -83.6933  2s    -83.8758  2p    -83.8758
   8-  1s    -83.6933  2s    -83.8758  2p    -83.8758

 E-fermi :   4.0565     XC(G=0):  -8.1359     alpha+bet : -9.9404

 k-point     1 :       0.0000    0.0000    0.0000
  band No.  band energies     occupation
      1     -68.5139      2.00000
      2     -68.4804      2.00000
      3     -68.4804      2.00000
      4     -68.4612      2.00000
      5     -68.4581      2.00000
      6     -68.4581      2.00000
      7     -20.1603      2.00000
      8     -20.1564      2.00000
      9     -20.1564      2.00000
     10     -20.0627      2.00000
     11     -20.0573      2.00000
     12     -11.7213      2.00000
     13     -10.0769      2.00000
     14     -10.0664      2.00000
     15     -10.0664      2.00000
     16      -4.7136      2.00000
     17      -4.6437      2.00000
     18      -4.5982      2.00000
     19      -4.5982      2.00000
     20      -4.5911      2.00000
     21      -4.2425      2.00000
     22      -1.8604      2.00000
     23      -1.2301      2.00000
     24      -1.1806      2.00000
     25      -0.7451      2.00000
     26      -0.6159      2.00000
     27      -0.6159      2.00000
     28      -0.0031      2.00000
     29      -0.0031      2.00000
     30       0.3451      2.00000
     31       0.3803      2.00000
     32       0.3803      2.00000
     33       1.4099      2.00000
     34       1.4740      2.00000
     35       1.6271      2.00000
     36       1.9547      2.00000
     37       2.0155      2.00000
     38       2.0155      2.00000
     39       2.1732      2.00000
     40       3.9136      2.00000
     41       3.9136      2.00000
     42       3.9734      2.00000
     43       5.3727      0.00000
     44       6.9975      0.00000
     45       8.0439      0.00000
     46       8.9298      0.00000
     47       8.9298      0.00000
     48      10.2250      0.00000
     49      10.4481      0.00000
     50      10.5232      0.00000
     51      10.9491      0.00000
     52      11.6730      0.00000

[...]

 k-point   123 :       0.0000    0.0000    0.5000
  band No.  band energies     occupation
      1     -68.5137      2.00000
      2     -68.4804      2.00000
      3     -68.4804      2.00000
      4     -68.4610      2.00000
      5     -68.4581      2.00000
      6     -68.4581      2.00000
      7     -20.1605      2.00000
      8     -20.1561      2.00000
      9     -20.1561      2.00000
     10     -20.0628      2.00000
     11     -20.0573      2.00000
     12     -11.2076      2.00000
     13     -10.7871      2.00000
     14     -10.0814      2.00000
     15     -10.0814      2.00000
     16      -5.0510      2.00000
     17      -4.6336      2.00000
     18      -4.6289      2.00000
     19      -4.6289      2.00000
     20      -4.5550      2.00000
     21      -3.7648      2.00000
     22      -2.2307      2.00000
     23      -0.8253      2.00000
     24      -0.8114      2.00000
     25      -0.3907      2.00000
     26      -0.3703      2.00000
     27      -0.3703      2.00000
     28      -0.0158      2.00000
     29      -0.0158      2.00000
     30       0.4692      2.00000
     31       0.5134      2.00000
     32       0.5134      2.00000
     33       1.3603      2.00000
     34       1.5512      2.00000
     35       1.6385      2.00000
     36       1.6735      2.00000
     37       2.5022      2.00000
     38       2.6317      2.00000
     39       2.6810      2.00000
     40       2.6810      2.00000
     41       2.9557      2.00000
     42       2.9557      2.00000
     43       6.4691      0.00000
     44       7.0407      0.00000
     45       7.0407      0.00000
     46       7.5013      0.00000
     47       8.4608      0.00000
     48       8.6320      0.00000
     49       9.5431      0.00000
     50       9.6141      0.00000
     51      12.2876      0.00000
     52      12.5966      0.00000

 soft charge-density along one line, spin component           1
         0         1         2         3         4         5         6         7         8         9
 total charge-density along one line

------------------------ aborting loop because EDIFF is reached ----------------------------------------

 total charge

# of ion     s       p       d       tot
  1        0.208   6.163   9.067  15.438
  2        0.206   6.161   9.068  15.435
  3        0.490   0.461   9.836  10.787
  4        1.084   1.141  10.121  12.346
  5        1.319   2.413   0.000   3.732
  6        1.319   2.413   0.000   3.732
  7        1.319   2.413   0.000   3.732
  8        1.318   2.412   0.000   3.731
tot        7.263  23.577  38.091  68.931

  FORCE on cell =-STRESS in cart. coord.  units (eV):
  Direction    XX          YY          ZZ          XY          YZ          ZX
  Alpha Z   275.46753   275.46753   275.46753
  Ewald   -2394.86127 -2394.86127 -2366.21278     0.00000     0.00000     0.00000
  Hartree  1686.79041  1686.79041  1717.91458     0.00000     0.00017     0.00015
  E(xc)    -375.94662  -375.94661  -375.94859    -0.00004     0.00001     0.00001
  Local    -634.07914  -634.07914  -694.15636     0.00036     0.00053     0.00056
  n-local   660.59354   660.72334   660.91717     0.01755     0.00135     0.13651
  augment   455.52408   455.52406   455.13011    -0.00029    -0.00253    -0.00252
  Kinetic   910.00830   911.93840   911.14337    -0.04156    -0.15938    -0.31460
  Fock            NaN         NaN         NaN         NaN         NaN         NaN
  Total           NaN         NaN         NaN         NaN         NaN         NaN
  in kB           NaN         NaN         NaN         NaN         NaN         NaN

 VOLUME and BASIS-vectors are now :
  energy-cutoff  :      500.00
  volume of cell :      160.21
      direct lattice vectors                 reciprocal lattice vectors
     5.435300000  0.000000000  0.000000000     0.183982485  0.000000000 -0.092196841
     0.000000000  5.435300000  0.000000000     0.000000000  0.183982485 -0.092196841
     2.717650000  2.717650000  5.423179281     0.000000000  0.000000000  0.184393683

  length of vectors
     5.435300000  5.435300000  6.646962958     0.205790700  0.205790700  0.184393683

 FORCES acting on ions:
    Electron-Ion                     Ewald-Force                    Non-Local-Force
   -.404E-05 -.853E-06 -.480E-06   0.792E-11 -.246E-11 -.853E-11   0.130E-17 -.651E-18 0.000E+00
   -.637E-07 0.263E-05 0.502E-06   -.757E-11 -.244E-11 0.882E-11   -.434E-18 0.000E+00 0.000E+00
   0.290E-05 -.200E-05 0.521E-06   0.544E-11 -.267E-11 0.605E-11   0.108E-18 0.000E+00 0.000E+00
   0.249E-05 -.194E-05 -.437E-06   -.553E-11 -.253E-11 -.624E-11   -.499E-17 -.152E-17 0.000E+00
   -.636E+02 -.715E+01 0.576E+01   0.613E+02 0.840E+01 -.704E+01   0.221E+01 -.120E+01 0.122E+01
   0.636E+02 0.715E+01 0.576E+01   -.613E+02 -.840E+01 -.704E+01   -.221E+01 0.120E+01 0.122E+01
   0.715E+01 -.636E+02 -.576E+01   -.840E+01 0.613E+02 0.704E+01   0.120E+01 0.221E+01 -.122E+01
   -.715E+01 0.636E+02 -.576E+01   0.840E+01 -.613E+02 0.704E+01   -.120E+01 -.221E+01 -.122E+01
   -.950E-05 -.498E-05 0.272E-04   -.178E-13 -.711E-14 -.888E-15   0.222E-15 0.000E+00 0.000E+00

 POSITION                                       TOTAL-FORCE (eV/Angst)
      0.00000      0.00000      0.00000              NaN           NaN           NaN
      5.43530      2.71765      2.71159              NaN           NaN           NaN
      2.71765      2.71765      0.00000              NaN           NaN           NaN
      2.71765      5.43530      2.71159              NaN           NaN           NaN
      1.30213      1.38979      1.32105              NaN           NaN           NaN
      4.13317      4.04551      1.32105              NaN           NaN           NaN
      6.76316      4.01978      4.10213              NaN           NaN           NaN
      4.10744      6.85082      4.10213              NaN           NaN           NaN
    total drift:                                     NaN           NaN           NaN

  FREE ENERGIE OF THE ION-ELECTRON SYSTEM (eV)
  free  energy   TOTEN  =       -38.58645563 eV

  energy  without entropy=      -38.58645563  energy(sigma->0) =      -38.58645563

 writing wavefunctions

 total charge

# of ion     s       p       d       tot
  1        0.208   6.163   9.067  15.438
  2        0.206   6.161   9.068  15.435
  3        0.490   0.461   9.836  10.787
  4        1.084   1.141  10.121  12.346
  5        1.319   2.413   0.000   3.732
  6        1.319   2.413   0.000   3.732
  7        1.319   2.413   0.000   3.732
  8        1.318   2.412   0.000   3.731
tot        7.263  23.577  38.091  68.931