 vasp.5.4.1 24Jun15 (build Nov 25 2015 16:01:35) complex

 executed on         CrayXC-Intel date 2016.09.07  12:49:16

 INCAR:
 POTCAR:   PAW Si 02Apr1999

 POTCAR:   PAW Si 02Apr1999
   VRHFIN =Si: s2p2

   TITEL  = PAW Si 02Apr1999
   POMASS =   28.085; ZVAL   =    4.000    mass and valenz
   ENMAX  =  245.704; ENMIN  =  184.278 eV
   QCUT   =   -4.250; QGAM   =    8.499    optimization parameters

   Description
     l     E      TYP  RCUT    TYP  RCUT
     0   .000     23  1.900
     0   .000     23  1.900
     1   .000     23  1.900
     1   .000     23  1.900
     2   .000      7  1.900

 PAW Si 02Apr1999                       :

 POSCAR: Si (Madelung Handbook, 295.7K)
  positions in direct lattice
  velocities in cartesian coordinates
 exchange correlation table for  LEXCH =        2
   RHO(1)=    0.500       N(1)  =     2000
   RHO(2)=  100.500       N(2)  =     4000

 ion  position               nearest neighbor table
   1  0.000  0.000  0.000-   2 2.35   2 2.35   2 2.35   2 2.35
   2  0.250  0.250  0.250-   1 2.35   1 2.35   1 2.35   1 2.35

  LATTYP: Found a face centered cubic cell.
 ALAT       =     5.4310000000

  Lattice vectors:

 A1 = (   2.7155000000,   2.7155000000,   0.0000000000)
 A2 = (   2.7155000000,   0.0000000000,  -2.7155000000)
 A3 = (   0.0000000000,   2.7155000000,  -2.7155000000)

Analysis of symmetry for initial positions (statically):
 Subroutine PRICEL returns:
 Original cell was already a primitive cell.

 Routine SETGRP: Setting up the symmetry group for a
 face centered cubic supercell.

 Subroutine GETGRP returns: Found 48 space group operations
 (whereof 24 operations were pure point group operations)
 out of a pool of 48 trial point group operations.

The static configuration has the point symmetry T_d .
 The point group associated with its full space group is O_h .

Analysis of symmetry for dynamics (positions and initial velocities):
 Subroutine PRICEL returns:
 Original cell was already a primitive cell.

 Routine SETGRP: Setting up the symmetry group for a
 face centered cubic supercell.

 Subroutine GETGRP returns: Found 48 space group operations
 (whereof 24 operations were pure point group operations)
 out of a pool of 48 trial point group operations.

The dynamic configuration has the point symmetry T_d .
 The point group associated with its full space group is O_h .

 Subroutine INISYM returns: Found 48 space group operations
 (whereof 24 operations are pure point group operations),
 and found     1 'primitive' translations

 KPOINTS: Automatically generated mesh: SCF=15,199
  k-points in reciprocal lattice
Space group operators:
 irot       det(A)        alpha          n_x          n_y          n_z        tau_x        tau_y        tau_z
    1     1.000000     0.000001     1.000000     0.000000     0.000000     0.000000     0.000000     0.000000
    2     1.000000   120.000000    -0.577350    -0.577350     0.577350     0.000000     0.000000     0.000000
    3     1.000000   120.000000     0.577350     0.577350    -0.577350     0.000000     0.000000     0.000000
    4    -1.000000    90.000000    -1.000000     0.000000     0.000000     0.000000     0.000000     0.000000
    5    -1.000000   180.000000     0.707107     0.707107     0.000000     0.000000     0.000000     0.000000
    6    -1.000000    90.000000     0.000000     1.000000     0.000000     0.000000     0.000000     0.000000
    7     1.000000   180.000000     1.000000     0.000000     0.000000     0.000000     0.000000     0.000000
    8     1.000000   120.000000     0.577350     0.577350     0.577350     0.000000     0.000000     0.000000
    9     1.000000   120.000000    -0.577350     0.577350     0.577350     0.000000     0.000000     0.000000
   10    -1.000000    90.000000     1.000000     0.000000     0.000000     0.000000     0.000000     0.000000
   11    -1.000000    90.000000     0.000000     0.000000     1.000000     0.000000     0.000000     0.000000
   12    -1.000000   180.000000     0.707107     0.000000    -0.707107     0.000000     0.000000     0.000000
   13     1.000000   120.000000     0.577350    -0.577350    -0.577350     0.000000     0.000000     0.000000
   14     1.000000   120.000000     0.577350    -0.577350     0.577350     0.000000     0.000000     0.000000
   15     1.000000   180.000000     0.000000     0.000000     1.000000     0.000000     0.000000     0.000000
   16    -1.000000    90.000000     0.000000    -1.000000     0.000000     0.000000     0.000000     0.000000
   17    -1.000000   180.000000     0.000000    -0.707107     0.707107     0.000000     0.000000     0.000000
   18    -1.000000    90.000000     0.000000     0.000000    -1.000000     0.000000     0.000000     0.000000
   19     1.000000   120.000000    -0.577350    -0.577350    -0.577350     0.000000     0.000000     0.000000
   20     1.000000   180.000000     0.000000     1.000000     0.000000     0.000000     0.000000     0.000000
   21     1.000000   120.000000    -0.577350     0.577350    -0.577350     0.000000     0.000000     0.000000
   22    -1.000000   180.000000     0.707107    -0.707107     0.000000     0.000000     0.000000     0.000000
   23    -1.000000   180.000000     0.000000     0.707107     0.707107     0.000000     0.000000     0.000000
   24    -1.000000   180.000000     0.707107     0.000000     0.707107     0.000000     0.000000     0.000000
   25    -1.000000     0.000001     1.000000     0.000000     0.000000     0.250000     0.250000     0.250000
   26    -1.000000   120.000000    -0.577350    -0.577350     0.577350     0.250000     0.250000     0.250000
   27    -1.000000   120.000000     0.577350     0.577350    -0.577350     0.250000     0.250000     0.250000
   28     1.000000    90.000000    -1.000000     0.000000     0.000000     0.250000     0.250000     0.250000
   29     1.000000   180.000000     0.707107     0.707107     0.000000     0.250000     0.250000     0.250000
   30     1.000000    90.000000     0.000000     1.000000     0.000000     0.250000     0.250000     0.250000
   31    -1.000000   180.000000     1.000000     0.000000     0.000000     0.250000     0.250000     0.250000
   32    -1.000000   120.000000     0.577350     0.577350     0.577350     0.250000     0.250000     0.250000
   33    -1.000000   120.000000    -0.577350     0.577350     0.577350     0.250000     0.250000     0.250000
   34     1.000000    90.000000     1.000000     0.000000     0.000000     0.250000     0.250000     0.250000
   35     1.000000    90.000000     0.000000     0.000000     1.000000     0.250000     0.250000     0.250000
   36     1.000000   180.000000     0.707107     0.000000    -0.707107     0.250000     0.250000     0.250000
   37    -1.000000   120.000000     0.577350    -0.577350    -0.577350     0.250000     0.250000     0.250000
   38    -1.000000   120.000000     0.577350    -0.577350     0.577350     0.250000     0.250000     0.250000
   39    -1.000000   180.000000     0.000000     0.000000     1.000000     0.250000     0.250000     0.250000
   40     1.000000    90.000000     0.000000    -1.000000     0.000000     0.250000     0.250000     0.250000
   41     1.000000   180.000000     0.000000    -0.707107     0.707107     0.250000     0.250000     0.250000
   42     1.000000    90.000000     0.000000     0.000000    -1.000000     0.250000     0.250000     0.250000
   43    -1.000000   120.000000    -0.577350    -0.577350    -0.577350     0.250000     0.250000     0.250000
   44    -1.000000   180.000000     0.000000     1.000000     0.000000     0.250000     0.250000     0.250000
   45    -1.000000   120.000000    -0.577350     0.577350    -0.577350     0.250000     0.250000     0.250000
   46     1.000000   180.000000     0.707107    -0.707107     0.000000     0.250000     0.250000     0.250000
   47     1.000000   180.000000     0.000000     0.707107     0.707107     0.250000     0.250000     0.250000
   48     1.000000   180.000000     0.707107     0.000000     0.707107     0.250000     0.250000     0.250000

 I would recommend the setting:
   dimension x,y,z NGX =    28 NGY =   28 NGZ =   28
 SYSTEM =  Name
 POSCAR =  Si (Madelung Handbook, 295.7K)

 Startparameter for this run:
   NWRITE =      2    write-flag & timer
   PREC   = accura    normal or accurate (medium, high low for compatibility)
   ISTART =      0    job   : 0-new  1-cont  2-samecut
   ICHARG =     11    charge: 1-file 2-atom 10-const
   ISPIN  =      1    spin polarized calculation?
   LNONCOLLINEAR =      F non collinear calculations
   LSORBIT =      F    spin-orbit coupling
   INIWAV =      1    electr: 0-lowe 1-rand  2-diag
   LASPH  =      F    aspherical Exc in radial PAW
   METAGGA=      F    non-selfconsistent MetaGGA calc.

 Electronic Relaxation 1
   ENCUT  =  500.0 eV  36.75 Ry    6.06 a.u.   7.00  7.00  7.00*2*pi/ulx,y,z
   ENINI  =  500.0     initial cutoff
   ENAUG  =  322.1 eV  augmentation charge cutoff
   NELM   =     60;   NELMIN=  2; NELMDL=  0     # of ELM steps
   EDIFF  = 0.1E-05   stopping-criterion for ELM
   LREAL  =      F    real-space projection
   NLSPLINE    = F    spline interpolate recip. space projectors
   LCOMPAT=      F    compatible to vasp.4.4
   GGA_COMPAT  = T    GGA compatible to vasp.4.4-vasp.4.6
   LMAXPAW     = -100 max onsite density
   LMAXMIX     =    2 max onsite mixed and CHGCAR
   VOSKOWN=      0    Vosko Wilk Nusair interpolation
   ROPT   =    0.00000
 Ionic relaxation
   EDIFFG = -.5E-02   stopping-criterion for IOM
   NSW    =      1    number of steps for IOM
   NBLOCK =      1;   KBLOCK =      1    inner block; outer block
   IBRION =      2    ionic relax: 0-MD 1-quasi-New 2-CG
   NFREE  =      1    steps in history (QN), initial steepest desc. (CG)
   ISIF   =      3    stress and relaxation
   IWAVPR =     11    prediction:  0-non 1-charg 2-wave 3-comb
   ISYM   =      2    0-nonsym 1-usesym 2-fastsym
   LCORR  =      T    Harris-Foulkes like correction to forces

   POTIM  = 0.5000    time-step for ionic-motion
   TEIN   =    0.0    initial temperature
   TEBEG  =    0.0;   TEEND  =   0.0 temperature during run
   SMASS  =  -3.00    Nose mass-parameter (am)
   estimated Nose-frequenzy (Omega)   =  0.10E-29 period in steps =****** mass=  -0.337E-27a.u.
   SCALEE = 1.0000    scale energy and forces
   NPACO  =    256;   APACO  = 16.0  distance and # of slots for P.C.
   PSTRESS=    0.0 pullay stress

  Mass of Ions in am
   POMASS =  28.09
  Ionic Valenz
   ZVAL   =   4.00
  Atomic Wigner-Seitz radii
  virtual crystal weights
   VCA    =   1.00
   NELECT =       8.0000    total number of electrons
   NUPDOWN=      -1.0000    fix difference up-down

 DOS related values:
   EMIN   =  10.00;   EMAX   =-10.00  energy-range for DOS
   EFERMI =   0.00
   ISMEAR =     0;   SIGMA  =   0.01  broadening in eV -4-tet -1-fermi 0-gaus

 Electronic relaxation 2 (details)
   IALGO  =     38    algorithm
   LDIAG  =      T    sub-space diagonalisation (order eigenvalues)
   LSUBROT=      F    optimize rotation matrix (better conditioning)
   TURBO    =      0    0=normal 1=particle mesh
   IRESTART =      0    0=no restart 2=restart with 2 vectors
   NREBOOT  =      0    no. of reboots
[...]
   0.00000000  0.00000000  0.97989947       0.000
   0.00000000  0.00000000  0.98492461       0.000
   0.00000000  0.00000000  0.98994976       0.000
   0.00000000  0.00000000  0.99497485       0.000

 position of ions in fractional coordinates (direct lattice)
   0.00000000  0.00000000  0.00000000
   0.25000000  0.25000000  0.25000000

 position of ions in cartesian coordinates  (Angst):
   0.00000000  0.00000000  0.00000000
   1.35775000  1.35775000 -1.35775000

 k-point  1 :   0.0000 0.0000 0.0000  plane waves:     965
 k-point  2 :   0.1667 0.0000 0.0000  plane waves:     989
 k-point  3 :   0.3333 0.0000 0.0000  plane waves:    1008
 k-point  4 :   0.5000 0.0000 0.0000  plane waves:    1008
 k-point  5 :   0.1667 0.1667 0.0000  plane waves:     998
 k-point  6 :   0.3333 0.1667 0.0000  plane waves:    1011
 k-point  7 :   0.5000 0.1667 0.0000  plane waves:    1017
 k-point  8 :  -0.3333 0.1667 0.0000  plane waves:    1019
 k-point  9 :  -0.1667 0.1667 0.0000  plane waves:    1013
 k-point 10 :   0.3333 0.3333 0.0000  plane waves:    1018
 k-point 11 :   0.5000 0.3333 0.0000  plane waves:    1012
 k-point 12 :  -0.3333 0.3333 0.0000  plane waves:    1015
 k-point 13 :   0.5000 0.5000 0.0000  plane waves:    1034
 k-point 14 :   0.5000 0.3333 0.1667  plane waves:    1032
 k-point 15 :  -0.3333 0.3333 0.1667  plane waves:    1020
 k-point 16 :   0.0000 0.0000 0.0000  plane waves:     965
 k-point 17 :   0.0000 0.0000 0.0050  plane waves:     965
 k-point 18 :   0.0000 0.0000 0.0101  plane waves:     965
 k-point 19 :   0.0000 0.0000 0.0151  plane waves:     965
 k-point 20 :   0.0000 0.0000 0.0201  plane waves:     965
 k-point 21 :   0.0000 0.0000 0.0251  plane waves:     965
 k-point 22 :   0.0000 0.0000 0.0302  plane waves:     968
 k-point 23 :   0.0000 0.0000 0.0352  plane waves:     974
 k-point 24 :   0.0000 0.0000 0.0402  plane waves:     977
 k-point 25 :   0.0000 0.0000 0.0452  plane waves:     977
 k-point 26 :   0.0000 0.0000 0.0503  plane waves:     977
 k-point 27 :   0.0000 0.0000 0.0553  plane waves:     983
 k-point 28 :   0.0000 0.0000 0.0603  plane waves:     983
 k-point 29 :   0.0000 0.0000 0.0653  plane waves:     980
 k-point 30 :   0.0000 0.0000 0.0704  plane waves:     992
 k-point 31 :   0.0000 0.0000 0.0754  plane waves:     992
 k-point 32 :   0.0000 0.0000 0.0804  plane waves:     992
 k-point 33 :   0.0000 0.0000 0.0854  plane waves:     992
 k-point 34 :   0.0000 0.0000 0.0905  plane waves:     992
 k-point 35 :   0.0000 0.0000 0.0955  plane waves:     992
 k-point 36 :   0.0000 0.0000 0.1005  plane waves:     995
 k-point 37 :   0.0000 0.0000 0.1055  plane waves:     995
 k-point 38 :   0.0000 0.0000 0.1106  plane waves:     995
 k-point 39 :   0.0000 0.0000 0.1156  plane waves:     995
 k-point 40 :   0.0000 0.0000 0.1206  plane waves:     995
 k-point 41 :   0.0000 0.0000 0.1256  plane waves:     989
 k-point 42 :   0.0000 0.0000 0.1307  plane waves:     989
 k-point 43 :   0.0000 0.0000 0.1357  plane waves:     989
 k-point 44 :   0.0000 0.0000 0.1407  plane waves:     989
 k-point 45 :   0.0000 0.0000 0.1457  plane waves:     989
 k-point 46 :   0.0000 0.0000 0.1508  plane waves:     989
 k-point 47 :   0.0000 0.0000 0.1558  plane waves:     989
 k-point 48 :   0.0000 0.0000 0.1608  plane waves:     989
 k-point 49 :   0.0000 0.0000 0.1658  plane waves:     989
 k-point 50 :   0.0000 0.0000 0.1709  plane waves:     989
 k-point 51 :   0.0000 0.0000 0.1759  plane waves:     995
 k-point 52 :   0.0000 0.0000 0.1809  plane waves:     995
 k-point 53 :   0.0000 0.0000 0.1859  plane waves:     995
 k-point 54 :   0.0000 0.0000 0.1910  plane waves:    1001
 k-point 55 :   0.0000 0.0000 0.1960  plane waves:    1001
 k-point 56 :   0.0000 0.0000 0.2010  plane waves:    1001
 k-point 57 :   0.0000 0.0000 0.2060  plane waves:    1001
 k-point 58 :   0.0000 0.0000 0.2111  plane waves:    1001
 k-point 59 :   0.0000 0.0000 0.2161  plane waves:    1001
 k-point 60 :   0.0000 0.0000 0.2211  plane waves:    1001
[...]
 k-point 85 :   0.0000 0.0000 0.3467  plane waves:    1008
 k-point 86 :   0.0000 0.0000 0.3518  plane waves:    1008
 k-point 87 :   0.0000 0.0000 0.3568  plane waves:    1008
 k-point 88 :   0.0000 0.0000 0.3618  plane waves:    1014
 k-point 89 :   0.0000 0.0000 0.3668  plane waves:    1014
 k-point 90 :   0.0000 0.0000 0.3719  plane waves:    1017
 k-point 91 :   0.0000 0.0000 0.3769  plane waves:    1017
 k-point 92 :   0.0000 0.0000 0.3819  plane waves:    1017
 k-point 93 :   0.0000 0.0000 0.3869  plane waves:    1017
 k-point 94 :   0.0000 0.0000 0.3920  plane waves:    1017
 k-point 95 :   0.0000 0.0000 0.3970  plane waves:    1017
 k-point 96 :   0.0000 0.0000 0.4020  plane waves:    1017
 k-point 97 :   0.0000 0.0000 0.4070  plane waves:    1023
 k-point 98 :   0.0000 0.0000 0.4121  plane waves:    1023
 k-point 99 :   0.0000 0.0000 0.4171  plane waves:    1023
 k-point ** :   0.0000 0.0000 0.4221  plane waves:    1023
 k-point ** :   0.0000 0.0000 0.4271  plane waves:    1023
 k-point ** :   0.0000 0.0000 0.4322  plane waves:    1023
 k-point ** :   0.0000 0.0000 0.4372  plane waves:    1026
 k-point ** :   0.0000 0.0000 0.4422  plane waves:    1026
 k-point ** :   0.0000 0.0000 0.4472  plane waves:    1026
 k-point ** :   0.0000 0.0000 0.4523  plane waves:    1026
 k-point ** :   0.0000 0.0000 0.4573  plane waves:    1026
 k-point ** :   0.0000 0.0000 0.4623  plane waves:    1020
 k-point ** :   0.0000 0.0000 0.4673  plane waves:    1020
 k-point ** :   0.0000 0.0000 0.4724  plane waves:    1020
 k-point ** :   0.0000 0.0000 0.4774  plane waves:    1014
 k-point ** :   0.0000 0.0000 0.4824  plane waves:    1008
 k-point ** :   0.0000 0.0000 0.4874  plane waves:    1008
 k-point ** :   0.0000 0.0000 0.4925  plane waves:    1008
 k-point ** :   0.0000 0.0000 0.4975  plane waves:    1008
 k-point ** :   0.0000 0.0000 0.5025  plane waves:    1008
 k-point ** :   0.0000 0.0000 0.5075  plane waves:    1008
 k-point ** :   0.0000 0.0000 0.5126  plane waves:    1008
 k-point ** :   0.0000 0.0000 0.5176  plane waves:    1008
 k-point ** :   0.0000 0.0000 0.5226  plane waves:    1014
 k-point ** :   0.0000 0.0000 0.5276  plane waves:    1020
 k-point ** :   0.0000 0.0000 0.5327  plane waves:    1020
 k-point ** :   0.0000 0.0000 0.5377  plane waves:    1020
 k-point ** :   0.0000 0.0000 0.5427  plane waves:    1026
 k-point ** :   0.0000 0.0000 0.5477  plane waves:    1026
 k-point ** :   0.0000 0.0000 0.5528  plane waves:    1026
 k-point ** :   0.0000 0.0000 0.5578  plane waves:    1026
 k-point ** :   0.0000 0.0000 0.5628  plane waves:    1026
 k-point ** :   0.0000 0.0000 0.5678  plane waves:    1023
 k-point ** :   0.0000 0.0000 0.5729  plane waves:    1023
 k-point ** :   0.0000 0.0000 0.5779  plane waves:    1023
 k-point ** :   0.0000 0.0000 0.5829  plane waves:    1023
 k-point ** :   0.0000 0.0000 0.5879  plane waves:    1023
 k-point ** :   0.0000 0.0000 0.5930  plane waves:    1023
 k-point ** :   0.0000 0.0000 0.5980  plane waves:    1017
 k-point ** :   0.0000 0.0000 0.6030  plane waves:    1017
 k-point ** :   0.0000 0.0000 0.6080  plane waves:    1017
 k-point ** :   0.0000 0.0000 0.6131  plane waves:    1017
 k-point ** :   0.0000 0.0000 0.6181  plane waves:    1017
 k-point ** :   0.0000 0.0000 0.6231  plane waves:    1017
 k-point ** :   0.0000 0.0000 0.6281  plane waves:    1017
 k-point ** :   0.0000 0.0000 0.6332  plane waves:    1014
 k-point ** :   0.0000 0.0000 0.6382  plane waves:    1014
 k-point ** :   0.0000 0.0000 0.6432  plane waves:    1008
 k-point ** :   0.0000 0.0000 0.6482  plane waves:    1008
 k-point ** :   0.0000 0.0000 0.6533  plane waves:    1008
 k-point ** :   0.0000 0.0000 0.6583  plane waves:    1008
 k-point ** :   0.0000 0.0000 0.6633  plane waves:    1008
 k-point ** :   0.0000 0.0000 0.6683  plane waves:    1008
 k-point ** :   0.0000 0.0000 0.6734  plane waves:    1008
 k-point ** :   0.0000 0.0000 0.6784  plane waves:    1008
 k-point ** :   0.0000 0.0000 0.6834  plane waves:    1008
 k-point ** :   0.0000 0.0000 0.6884  plane waves:    1008
 k-point ** :   0.0000 0.0000 0.6935  plane waves:    1008
 k-point ** :   0.0000 0.0000 0.6985  plane waves:    1011
 k-point ** :   0.0000 0.0000 0.7035  plane waves:    1011
 k-point ** :   0.0000 0.0000 0.7085  plane waves:    1011
 k-point ** :   0.0000 0.0000 0.7136  plane waves:    1011
 k-point ** :   0.0000 0.0000 0.7186  plane waves:    1010
[...]
 k-point ** :   0.0000 0.0000 0.9246  plane waves:     992
 k-point ** :   0.0000 0.0000 0.9296  plane waves:     992
 k-point ** :   0.0000 0.0000 0.9347  plane waves:     980
 k-point ** :   0.0000 0.0000 0.9397  plane waves:     983
 k-point ** :   0.0000 0.0000 0.9447  plane waves:     983
 k-point ** :   0.0000 0.0000 0.9497  plane waves:     977
 k-point ** :   0.0000 0.0000 0.9548  plane waves:     977
 k-point ** :   0.0000 0.0000 0.9598  plane waves:     977
 k-point ** :   0.0000 0.0000 0.9648  plane waves:     974
 k-point ** :   0.0000 0.0000 0.9698  plane waves:     968
 k-point ** :   0.0000 0.0000 0.9749  plane waves:     965
 k-point ** :   0.0000 0.0000 0.9799  plane waves:     965
 k-point ** :   0.0000 0.0000 0.9849  plane waves:     965
 k-point ** :   0.0000 0.0000 0.9899  plane waves:     965
 k-point ** :   0.0000 0.0000 0.9950  plane waves:     965

 maximum and minimum number of plane-waves per node :       186      138

 maximum number of plane-waves:      1034
 maximum index in each direction:
   IXMAX=    7   IYMAX=    6   IZMAX=    7
   IXMIN=   -7   IYMIN=   -7   IZMIN=   -7

 WARNING: aliasing errors must be expected set NGX to  30 to avoid them
 NGY is ok and might be reduce to  28
 WARNING: aliasing errors must be expected set NGZ to  30 to avoid them
 aliasing errors are usually negligible using standard VASP settings
 and one can safely disregard these warnings

 parallel 3D FFT for wavefunctions:
    minimum data exchange during FFTs selected (reduces bandwidth)
 parallel 3D FFT for charge:
    minimum data exchange during FFTs selected (reduces bandwidth)

 initial charge density was supplied:
 number of electron       8.0000001 magnetization
 keeping initial charge density in first step

 Maximum index for augmentation-charges         1360 (set IRDMAX)

 First call to EWALD:  gamma=   0.518
 Maximum number of real-space cells 3x 3x 3
 Maximum number of reciprocal cells 3x 3x 3

 FEWALD executed in parallel

----------------------------------------- Iteration    1(   1)  ---------------------------------------

 eigenvalue-minimisations  :  3424
 total energy-change (2. order) : 0.6483734E+01  (-0.3160422E+03)
 number of electron       8.0000001 magnetization
 augmentation part        8.0000001 magnetization

 Free energy of the ion-electron system (eV)
  alpha Z        PSCENC =         2.36771343
  Ewald energy   TEWEN  =      -228.52143995
  -Hartree energ DENC   =       -14.91421964
  -exchange      EXHF   =         0.00000000
  -V(xc)+E(xc)   XCENC  =       -17.96442577
  PAW double counting   =        75.27329546      -40.66766249
  entropy T*S    EENTRO =        -0.00017624
  eigenvalues    EBANDS =        24.04431576
  atomic energy  EATOM  =       206.86633348
  Solvation  Ediel_sol  =         0.00000000
  free energy    TOTEN  =         6.48373405 eV

  energy without entropy =        6.48391028  energy(sigma->0) =        6.48382216

[...]

 eigenvalue-minimisations  :  5512
 total energy-change (2. order) :-0.1785059E+02  (-0.1770421E+02)
 number of electron       8.0000001 magnetization
 augmentation part        8.0000001 magnetization

[...]

----------------------------------------- Iteration    1(   6)  ---------------------------------------

 eigenvalue-minimisations  :  5688
 total energy-change (2. order) :-0.8208644E-08  (-0.8208633E-08)
 number of electron       8.0000001 magnetization
 augmentation part        8.0000001 magnetization

 Free energy of the ion-electron system (eV)
  alpha Z        PSCENC =         2.36771343
  Ewald energy   TEWEN  =      -228.52143995
  -Hartree energ DENC   =       -14.91421964
  -exchange      EXHF   =         0.00000000
  -V(xc)+E(xc)   XCENC  =       -17.96442577
  PAW double counting   =        75.27329546      -40.66766249
  entropy T*S    EENTRO =        -0.00000000
  eigenvalues    EBANDS =         5.95632848
  atomic energy  EATOM  =       206.86633348
  Solvation  Ediel_sol  =         0.00000000
  free energy    TOTEN  =       -11.60407700 eV

  energy without entropy =      -11.60407700  energy(sigma->0) =      -11.60407700

 the core state eigenenergies are
   1-  1s  -1763.7158  2s   -126.8064  2p    -83.6532
   2-  1s  -1763.7158  2s   -126.8064  2p    -83.6532

 E-fermi :   5.8506     XC(G=0):  -9.6022     alpha+bet :-12.0860

 k-point     1 :       0.0000    0.0000    0.0000
  band No.  band energies     occupation
      1      -6.1818      2.00000
      2       5.7767      2.00000
      3       5.7767      2.00000
      4       5.7767      2.00000
      5       8.2967      0.00000
      6       8.2967      0.00000
      7       8.2967      0.00000
      8       8.9835      0.00000

[...]

 k-point   214 :       0.0000    0.0000    0.9950
  band No.  band energies     occupation
      1      -6.1815      2.00000
      2       5.7726      2.00000
      3       5.7761      2.00000
      4       5.7761      2.00000
      5       8.2975      0.00000
      6       8.2975      0.00000
      7       8.2979      0.00000
      8       8.9858      0.00000

 soft charge-density along one line, spin component           1
         0         1         2         3         4         5         6         7         8         9
 total charge-density along one line

------------------------ aborting loop because EDIFF is reached ----------------------------------------

 total charge

# of ion     s       p       d       tot
  1        0.752   0.957   0.000   1.709
  2        0.752   0.957   0.000   1.709
tot        1.504   1.913   0.000   3.417

  FORCE on cell =-STRESS in cart. coord.  units (eV):
  Direction    XX          YY          ZZ          XY          YZ          ZX
  Alpha Z     2.36771     2.36771     2.36771
  Ewald     -76.17385   -76.17385   -76.17385     0.00000     0.00000    -0.00000
  Hartree     5.02913     5.02913     5.02913     0.00000    -0.00000    -0.00000
  E(xc)     -25.95274   -25.95274   -25.95274    -0.00000     0.00000     0.00000
  Local     -30.65647   -30.65647   -30.65647     0.00001    -0.00001    -0.00001
  n-local    76.60510    82.56201    81.76108    -1.19414    -2.67699    -0.77691
  augment   -12.49287   -12.49287   -12.49287    -0.00001     0.00001     0.00001
  Kinetic    55.69959    57.65130    59.30500    -0.96127    -3.76950    -0.97046
  Fock        0.00000     0.00000     0.00000     0.00000     0.00000     0.00000
  Total      -0.01772    -0.01772    -0.01772     0.00000     0.00000     0.00000
  in kB      -0.70908    -0.70908    -0.70908     0.00000     0.00000     0.00000

 VOLUME and BASIS-vectors are now :
  energy-cutoff  :      500.00
  volume of cell :       40.05
      direct lattice vectors                 reciprocal lattice vectors
     2.715500000  2.715500000  0.000000000     0.184128153  0.184128153  0.184128153
     2.715500000  0.000000000 -2.715500000     0.184128153 -0.184128153 -0.184128153
     0.000000000  2.715500000 -2.715500000    -0.184128153  0.184128153 -0.184128153

  length of vectors
     3.840296929  3.840296929  3.840296929     0.318919316  0.318919316  0.318919316

 FORCES acting on ions
    electron-ion (+dipol)            ewald-force                    non-local-force                 convergence-correction
   -.809E-08 -.448E-08 0.449E-08   -.923E-14 -.515E-14 0.930E-14   0.937E-16 0.763E-16 -.347E-16   -.187E-09 -.187E-09 0.187E-09
   0.809E-08 0.449E-08 -.449E-08   0.907E-14 0.563E-14 -.939E-14   -.114E-15 -.625E-16 0.833E-16   0.187E-09 0.187E-09 -.187E-09
   -.160E-13 0.459E-13 -.111E-12   -.164E-15 0.474E-15 -.970E-16   -.208E-16 0.139E-16 0.486E-16   0.610E-14 0.129E-14 0.549E-14

 POSITION                                       TOTAL-FORCE (eV/Angst)
      0.00000      0.00000      0.00000         0.000000      0.000000     -0.000000
      1.35775      1.35775     -1.35775        -0.000000     -0.000000      0.000000
    total drift:                               -0.000000      0.000000     -0.000000

  FREE ENERGIE OF THE ION-ELECTRON SYSTEM (eV)
  free  energy   TOTEN  =       -11.60407700 eV

  energy  without entropy=      -11.60407700  energy(sigma->0) =      -11.60407700

 writing wavefunctions

 total charge

# of ion     s       p       d       tot
  1        0.752   0.957   0.000   1.709
  2        0.752   0.957   0.000   1.709
tot        1.504   1.913   0.000   3.417