 vasp.5.4.1 24Jun15 (build Nov 12 2015 13:14:48) complex

 executed on             IFC_2016 date 2015.12.23  12:09:53

 INCAR:
 POTCAR:    PAW_PBE C 08Apr2002
 POTCAR:    PAW_PBE N 08Apr2002
 POTCAR:    PAW_PBE H 15Jun2001
 POTCAR:    PAW_PBE Pb_d 06Sep2000
 POTCAR:    PAW_PBE I 08Apr2002

 POTCAR:    PAW_PBE C 08Apr2002
   VRHFIN =C: s2p2

   TITEL  = PAW_PBE C 08Apr2002
   POMASS =   12.011; ZVAL   =    4.000    mass and valenz
   ENMAX  =  400.000; ENMIN  =  300.000 eV

 POTCAR:    PAW_PBE N 08Apr2002
   VRHFIN =N: s2p3

[...]

 POTCAR:    PAW_PBE H 15Jun2001
   VRHFIN =H: ultrasoft test

   TITEL  = PAW_PBE H 15Jun2001
   POMASS =    1.000; ZVAL   =    1.000    mass and valenz
   ENMAX  =  250.000; ENMIN  =  200.000 eV

 POTCAR:    PAW_PBE Pb_d 06Sep2000
   VRHFIN =Pb:

   TITEL  = PAW_PBE Pb_d 06Sep2000
   POMASS =  207.200; ZVAL   =   14.000    mass and valenz
   ENMAX  =  237.835; ENMIN  =  178.376 eV

 POTCAR:    PAW_PBE I 08Apr2002
   VRHFIN =I : s2p5

   TITEL  = PAW_PBE I 08Apr2002
   POMASS =  126.904; ZVAL   =    7.000    mass and valenz
   ENMAX  =  175.647; ENMIN  =  131.735 eV

  PAW_PBE C 08Apr2002                   :
  PAW_PBE N 08Apr2002                   :
  PAW_PBE H 15Jun2001                   :
  PAW_PBE Pb_d 06Sep2000                :
  PAW_PBE I 08Apr2002                   :

 POSCAR: MA-Pb-I (Github)
  positions in direct lattice
 exchange correlation table for  LEXCH =       14
   RHO(1)=    0.500       N(1)  =     2000
   RHO(2)=  100.500       N(2)  =     4000

 ion  position               nearest neighbor table
   1  0.903  1.000  0.996-   3 1.10   5 1.10   4 1.10   2 1.48
   2  0.137  1.000  0.025-   6 1.04   7 1.04   8 1.05   1 1.48
   3  0.865  1.000  0.826-   1 1.10
   4  0.838  0.144  0.072-   1 1.10
   5  0.838  0.857  0.072-   1 1.10
   6  0.208  0.134  0.958-   2 1.04
   7  0.207  0.865  0.958-   2 1.04
   8  0.182  0.000  0.185-   2 1.05
   9  0.476  0.500  0.476-  12 3.07  10 3.15  11 3.15  11 3.15  10 3.18  12 3.23
  10  0.427  0.500  0.973-   9 3.15   9 3.18
  11  0.436  0.000  0.507-   9 3.15   9 3.15
  12  0.963  0.500  0.448-   9 3.07   9 3.23

  LATTYP: Found a simple monoclinic cell.
 ALAT       =     6.2901201248
 B/A-ratio  =     0.9974197462
 C/A-ratio  =     1.4105278383
 COS(beta)  =    -0.7044835581

  Lattice vectors:

 A1 = (  -6.2901201248,   0.0000000000,   0.0000000000)
 A2 = (  -0.0000776940,  -6.2738900180,   0.0000000000)
 A3 = (   6.2504525538,  -0.0001537931,   6.2969150416)

Analysis of symmetry for initial positions (statically):
 Subroutine PRICEL returns:
 Original cell was already a primitive cell.

 Routine SETGRP: Setting up the symmetry group for a
 simple monoclinic supercell.

 Subroutine GETGRP returns: Found  1 space group operations
 (whereof  1 operations were pure point group operations)
 out of a pool of  4 trial point group operations.

The static configuration has the point symmetry C_1 .

Analysis of symmetry for dynamics (positions and initial velocities):
 Subroutine PRICEL returns:
 Original cell was already a primitive cell.

 Routine SETGRP: Setting up the symmetry group for a
 simple monoclinic supercell.

 Subroutine GETGRP returns: Found  1 space group operations
 (whereof  1 operations were pure point group operations)
 out of a pool of  4 trial point group operations.

The dynamic configuration has the point symmetry C_1 .

 Subroutine INISYM returns: Found  1 space group operations
 (whereof  1 operations are pure point group operations),
 and found     1 'primitive' translations

 KPOINTS: Automatic mesh

Automatic generation of k-mesh.
Space group operators:
 irot       det(A)        alpha          n_x          n_y          n_z        tau_x        tau_y        tau_z
    1     1.000000     0.000000     1.000000     0.000000     0.000000     0.000000     0.000000     0.000000

 Subroutine IBZKPT returns following result:

 Found    112 irreducible k-points:

 Following reciprocal coordinates:
            Coordinates               Weight
  0.000000  0.000000  0.000000      1.000000
  0.166667  0.000000  0.000000      2.000000
  0.333333  0.000000  0.000000      2.000000
  0.500000  0.000000  0.000000      1.000000
  0.000000  0.166667  0.000000      2.000000
  0.166667  0.166667  0.000000      2.000000
  0.333333  0.166667  0.000000      2.000000
  0.500000  0.166667  0.000000      2.000000
 -0.333333  0.166667 -0.000000      2.000000
 -0.166667  0.166667 -0.000000      2.000000
  0.000000  0.333333  0.000000      2.000000
  0.166667  0.333333  0.000000      2.000000
  0.333333  0.333333  0.000000      2.000000
  0.500000  0.333333  0.000000      2.000000
 -0.333333  0.333333  0.000000      2.000000
 -0.166667  0.333333 -0.000000      2.000000
  0.000000  0.500000  0.000000      1.000000
  0.166667  0.500000  0.000000      2.000000
  0.333333  0.500000  0.000000      2.000000
  0.500000  0.500000  0.000000      1.000000
  0.000000  0.000000  0.166667      2.000000
  0.166667  0.000000  0.166667      2.000000
  0.333333  0.000000  0.166667      2.000000
  0.500000  0.000000  0.166667      2.000000
 -0.333333 -0.000000  0.166667      2.000000
 -0.166667 -0.000000  0.166667      2.000000
  0.000000  0.166667  0.166667      2.000000
  0.166667  0.166667  0.166667      2.000000
  0.333333  0.166667  0.166667      2.000000
  0.500000  0.166667  0.166667      2.000000
 -0.333333  0.166667  0.166667      2.000000
 -0.166667  0.166667  0.166667      2.000000
  0.000000  0.333333  0.166667      2.000000
  0.166667  0.333333  0.166667      2.000000
  0.333333  0.333333  0.166667      2.000000
  0.500000  0.333333  0.166667      2.000000
 -0.333333  0.333333  0.166667      2.000000
 -0.166667  0.333333  0.166667      2.000000
  0.000000  0.500000  0.166667      2.000000
  0.166667  0.500000  0.166667      2.000000
  0.333333  0.500000  0.166667      2.000000
  0.500000  0.500000  0.166667      2.000000
 -0.333333  0.500000  0.166667      2.000000
 -0.166667  0.500000  0.166667      2.000000
  0.000000 -0.333333  0.166667      2.000000
  0.166667 -0.333333  0.166667      2.000000
  0.333333 -0.333333  0.166667      2.000000
  0.500000 -0.333333  0.166667      2.000000
 -0.333333 -0.333333  0.166667      2.000000
 -0.166667 -0.333333  0.166667      2.000000
  0.000000 -0.166667  0.166667      2.000000
  0.166667 -0.166667  0.166667      2.000000
  0.333333 -0.166667  0.166667      2.000000
  0.500000 -0.166667  0.166667      2.000000
 -0.333333 -0.166667  0.166667      2.000000
 -0.166667 -0.166667  0.166667      2.000000
  0.000000  0.000000  0.333333      2.000000
  0.166667  0.000000  0.333333      2.000000
  0.333333  0.000000  0.333333      2.000000
  0.500000  0.000000  0.333333      2.000000
[...]
  0.166667  0.166667  0.500000      2.000000
  0.333333  0.166667  0.500000      2.000000
  0.500000  0.166667  0.500000      2.000000
 -0.333333  0.166667  0.500000      2.000000
 -0.166667  0.166667  0.500000      2.000000
  0.000000  0.333333  0.500000      2.000000
  0.166667  0.333333  0.500000      2.000000
  0.333333  0.333333  0.500000      2.000000
  0.500000  0.333333  0.500000      2.000000
 -0.333333  0.333333  0.500000      2.000000
 -0.166667  0.333333  0.500000      2.000000
  0.000000  0.500000  0.500000      1.000000
  0.166667  0.500000  0.500000      2.000000
  0.333333  0.500000  0.500000      2.000000
  0.500000  0.500000  0.500000      1.000000

 Following cartesian coordinates:
            Coordinates               Weight
  0.000000  0.000000  0.000000      1.000000
  0.026497 -0.000000  0.000167      2.000000
  0.052993 -0.000001  0.000334      2.000000
  0.079490 -0.000001  0.000501      1.000000
  0.000000  0.026565  0.000001      2.000000
  0.026497  0.026565  0.000168      2.000000
  0.052993  0.026564  0.000334      2.000000
  0.079490  0.026564  0.000501      2.000000
 -0.052993  0.026566 -0.000333      2.000000
 -0.026497  0.026565 -0.000166      2.000000
  0.000000  0.053130  0.000001      2.000000
  0.026497  0.053130  0.000168      2.000000
  0.052993  0.053130  0.000335      2.000000
  0.079490  0.053129  0.000502      2.000000
 -0.052993  0.053131 -0.000333      2.000000
 -0.026497  0.053131 -0.000166      2.000000
  0.000000  0.079695  0.000002      1.000000
  0.026497  0.079695  0.000169      2.000000
  0.052993  0.079695  0.000336      2.000000
  0.079490  0.079694  0.000503      1.000000
  0.000000  0.000000  0.026468      2.000000
  0.026497 -0.000000  0.026635      2.000000
  0.052993 -0.000001  0.026802      2.000000
  0.079490 -0.000001  0.026969      2.000000
 -0.052993  0.000001  0.026134      2.000000
 -0.026497  0.000000  0.026301      2.000000
  0.000000  0.026565  0.026469      2.000000
  0.026497  0.026565  0.026636      2.000000
  0.052993  0.026564  0.026802      2.000000
  0.079490  0.026564  0.026969      2.000000
 -0.052993  0.026566  0.026135      2.000000
 -0.026497  0.026565  0.026302      2.000000
  0.000000  0.053130  0.026469      2.000000
  0.026497  0.053130  0.026636      2.000000
  0.052993  0.053130  0.026803      2.000000
  0.079490  0.053129  0.026970      2.000000
 -0.052993  0.053131  0.026135      2.000000
 -0.026497  0.053131  0.026302      2.000000
  0.000000  0.079695  0.026470      2.000000
  0.026497  0.079695  0.026637      2.000000
  0.052993  0.079695  0.026804      2.000000
  0.079490  0.079694  0.026971      2.000000
 -0.052993  0.079696  0.026136      2.000000
 -0.026497  0.079696  0.026303      2.000000
  0.000000 -0.053130  0.026467      2.000000
  0.026497 -0.053131  0.026634      2.000000
  0.052993 -0.053131  0.026801      2.000000
  0.079490 -0.053131  0.026967      2.000000
 -0.052993 -0.053130  0.026133      2.000000
 -0.026497 -0.053130  0.026300      2.000000
  0.000000 -0.026565  0.026467      2.000000
  0.026497 -0.026565  0.026634      2.000000
  0.052993 -0.026566  0.026801      2.000000
  0.079490 -0.026566  0.026968      2.000000
 -0.052993 -0.026564  0.026134      2.000000
 -0.026497 -0.026565  0.026300      2.000000
  0.000000  0.000000  0.052936      2.000000
  0.026497 -0.000000  0.053103      2.000000
  0.052993 -0.000001  0.053270      2.000000
  0.079490 -0.000001  0.053437      2.000000
[...]
  0.026497  0.026565  0.079572      2.000000
  0.052993  0.026564  0.079738      2.000000
  0.079490  0.026564  0.079905      2.000000
 -0.052993  0.026566  0.079071      2.000000
 -0.026497  0.026565  0.079238      2.000000
  0.000000  0.053130  0.079405      2.000000
  0.026497  0.053130  0.079572      2.000000
  0.052993  0.053130  0.079739      2.000000
  0.079490  0.053129  0.079906      2.000000
 -0.052993  0.053131  0.079071      2.000000
 -0.026497  0.053131  0.079238      2.000000
  0.000000  0.079695  0.079406      1.000000
  0.026497  0.079695  0.079573      2.000000
  0.052993  0.079695  0.079740      2.000000
  0.079490  0.079694  0.079907      1.000000

 I would recommend the setting:
   dimension x,y,z NGX =    46 NGY =   46 NGZ =   46
 SYSTEM =  Name
 POSCAR =  MA-Pb-I (Github)

 Startparameter for this run:
   NWRITE =      2    write-flag & timer
   PREC   = accura    normal or accurate (medium, high low for compatibility)
   ISTART =      0    job   : 0-new  1-cont  2-samecut
[...]
 k-point 32 :  -0.1667 0.1667 0.1667  plane waves:    6331
 k-point 33 :   0.0000 0.3333 0.1667  plane waves:    6315
 k-point 34 :   0.1667 0.3333 0.1667  plane waves:    6311
 k-point 35 :   0.3333 0.3333 0.1667  plane waves:    6304
 k-point 36 :   0.5000 0.3333 0.1667  plane waves:    6304
 k-point 37 :  -0.3333 0.3333 0.1667  plane waves:    6307
 k-point 38 :  -0.1667 0.3333 0.1667  plane waves:    6311
 k-point 39 :   0.0000 0.5000 0.1667  plane waves:    6308
 k-point 40 :   0.1667 0.5000 0.1667  plane waves:    6305
 k-point 41 :   0.3333 0.5000 0.1667  plane waves:    6316
 k-point 42 :   0.5000 0.5000 0.1667  plane waves:    6300
 k-point 43 :  -0.3333 0.5000 0.1667  plane waves:    6297
 k-point 44 :  -0.1667 0.5000 0.1667  plane waves:    6306
 k-point 45 :   0.0000-0.3333 0.1667  plane waves:    6315
 k-point 46 :   0.1667-0.3333 0.1667  plane waves:    6311
 k-point 47 :   0.3333-0.3333 0.1667  plane waves:    6304
 k-point 48 :   0.5000-0.3333 0.1667  plane waves:    6304
 k-point 49 :  -0.3333-0.3333 0.1667  plane waves:    6306
 k-point 50 :  -0.1667-0.3333 0.1667  plane waves:    6311
 k-point 51 :   0.0000-0.1667 0.1667  plane waves:    6314
 k-point 52 :   0.1667-0.1667 0.1667  plane waves:    6321
 k-point 53 :   0.3333-0.1667 0.1667  plane waves:    6318
 k-point 54 :   0.5000-0.1667 0.1667  plane waves:    6300
 k-point 55 :  -0.3333-0.1667 0.1667  plane waves:    6317
 k-point 56 :  -0.1667-0.1667 0.1667  plane waves:    6331
 k-point 57 :   0.0000 0.0000 0.3333  plane waves:    6323
 k-point 58 :   0.1667 0.0000 0.3333  plane waves:    6319
 k-point 59 :   0.3333 0.0000 0.3333  plane waves:    6300
 k-point 60 :   0.5000 0.0000 0.3333  plane waves:    6301
[...]
 k-point 85 :  -0.3333-0.3333 0.3333  plane waves:    6297
 k-point 86 :  -0.1667-0.3333 0.3333  plane waves:    6299
 k-point 87 :   0.0000-0.1667 0.3333  plane waves:    6313
 k-point 88 :   0.1667-0.1667 0.3333  plane waves:    6320
 k-point 89 :   0.3333-0.1667 0.3333  plane waves:    6309
 k-point 90 :   0.5000-0.1667 0.3333  plane waves:    6307
 k-point 91 :  -0.3333-0.1667 0.3333  plane waves:    6303
 k-point 92 :  -0.1667-0.1667 0.3333  plane waves:    6321
 k-point 93 :   0.0000 0.0000 0.5000  plane waves:    6334
 k-point 94 :   0.1667 0.0000 0.5000  plane waves:    6312
 k-point 95 :   0.3333 0.0000 0.5000  plane waves:    6298
 k-point 96 :   0.5000 0.0000 0.5000  plane waves:    6272
 k-point 97 :   0.0000 0.1667 0.5000  plane waves:    6310
 k-point 98 :   0.1667 0.1667 0.5000  plane waves:    6306
 k-point 99 :   0.3333 0.1667 0.5000  plane waves:    6302
 k-point ** :   0.5000 0.1667 0.5000  plane waves:    6304
 k-point ** :  -0.3333 0.1667 0.5000  plane waves:    6302
 k-point ** :  -0.1667 0.1667 0.5000  plane waves:    6305
 k-point ** :   0.0000 0.3333 0.5000  plane waves:    6298
 k-point ** :   0.1667 0.3333 0.5000  plane waves:    6304
 k-point ** :   0.3333 0.3333 0.5000  plane waves:    6291
 k-point ** :   0.5000 0.3333 0.5000  plane waves:    6270
 k-point ** :  -0.3333 0.3333 0.5000  plane waves:    6293
 k-point ** :  -0.1667 0.3333 0.5000  plane waves:    6304
 k-point ** :   0.0000 0.5000 0.5000  plane waves:    6276
 k-point ** :   0.1667 0.5000 0.5000  plane waves:    6300
 k-point ** :   0.3333 0.5000 0.5000  plane waves:    6282
 k-point ** :   0.5000 0.5000 0.5000  plane waves:    6272

 maximum and minimum number of plane-waves per node :      6358     6270

 maximum number of plane-waves:      6358
 maximum index in each direction:
   IXMAX=   11   IYMAX=   11   IZMAX=   11
   IXMIN=  -11   IYMIN=  -11   IZMIN=  -11

 NGX is ok and might be reduce to  46
 NGY is ok and might be reduce to  46
 NGZ is ok and might be reduce to  46

 serial   3D FFT for wavefunctions
 parallel 3D FFT for charge:
    minimum data exchange during FFTs selected (reduces bandwidth)

 Broyden mixing: mesh for mixing (old mesh)
   NGX = 23   NGY = 23   NGZ = 23
  (NGX  = 96   NGY  = 96   NGZ  = 96)
  gives a total of  12167 points

 initial charge density was supplied:
 charge density of overlapping atoms calculated
 number of electron      50.0000000 magnetization
 keeping initial charge density in first step

 Maximum index for augmentation-charges         3139 (set IRDMAX)

 First call to EWALD:  gamma=   0.282
 Maximum number of real-space cells 3x 3x 3
 Maximum number of reciprocal cells 3x 3x 3

 FEWALD executed in parallel

----------------------------------------- Iteration    1(   1)  ---------------------------------------

 eigenvalue-minimisations  :  7168
 total energy-change (2. order) : 0.3647115E+03  (-0.2000546E+04)
 number of electron      50.0000000 magnetization
 augmentation part       50.0000000 magnetization

 Free energy of the ion-electron system (eV)
  alpha Z        PSCENC =        46.46595848
  Ewald energy   TEWEN  =     -1941.32201603
  -Hartree energ DENC   =     -1015.77699842
  -exchange      EXHF   =         0.00000000
  -V(xc)+E(xc)   XCENC  =        48.82590017
  PAW double counting   =      2575.15395706    -2481.98819232
  entropy T*S    EENTRO =        -0.00009650
  eigenvalues    EBANDS =        39.75474979
  atomic energy  EATOM  =      3093.59820730
  Solvation  Ediel_sol  =         0.00000000
  free energy    TOTEN  =       364.71146955 eV

  energy without entropy =      364.71156604  energy(sigma->0) =      364.71151780

[...]

 eigenvalue-minimisations  :  8864
 total energy-change (2. order) :-0.3753302E+03  (-0.3602937E+03)
 number of electron      50.0000000 magnetization
 augmentation part       50.0000000 magnetization

[...]

 Broyden mixing:
  rms(total) = 0.10634E+01    rms(broyden)= 0.10632E+01
  rms(prec ) = 0.17244E+01
  weight for this iteration     100.00

[...]

 eigenvalues of (default mixing * dielectric matrix)
  average eigenvalue GAMMA=   1.5307
  1.5307

[...]

 eigenvalue-minimisations  :  8400
 total energy-change (2. order) :-0.1375595E-05  (-0.2818149E-06)
 number of electron      49.9999995 magnetization
 augmentation part        0.9880689 magnetization

 Broyden mixing:
  rms(total) = 0.37037E-03    rms(broyden)= 0.37034E-03
  rms(prec ) = 0.52885E-03
  weight for this iteration     100.00

 eigenvalues of (default mixing * dielectric matrix)
  average eigenvalue GAMMA=   1.6334
  3.2346  2.4685  2.4685  1.6094  1.1304  1.1304  1.2779  1.0592  1.0592  0.8956

[...]

----------------------------------------- Iteration    1(  16)  ---------------------------------------

 eigenvalue-minimisations  :  5848
 total energy-change (2. order) : 0.5793936E-07  (-0.7091292E-07)
 number of electron      49.9999995 magnetization
 augmentation part        0.9880689 magnetization

 Free energy of the ion-electron system (eV)
  alpha Z        PSCENC =        46.46595848
  Ewald energy   TEWEN  =     -1941.32201603
  -Hartree energ DENC   =     -1052.24815417
  -exchange      EXHF   =         0.00000000
  -V(xc)+E(xc)   XCENC  =        52.38055870
  PAW double counting   =      3630.15879441    -3536.86368268
  entropy T*S    EENTRO =        -0.00000000
  eigenvalues    EBANDS =      -344.23914835
  atomic energy  EATOM  =      3093.59820730
  Solvation  Ediel_sol  =         0.00000000
  free energy    TOTEN  =       -52.06948233 eV

  energy without entropy =      -52.06948233  energy(sigma->0) =      -52.06948233

 the core state eigenenergies are
   1-  1s   -264.1060
   2-  1s   -377.5464
   3-
   4-
   5-
   6-
   7-
   8-
   9-  1s -88085.7473  2s -15747.2405  2p -13502.0037  3s  -3775.4910  3p  -3132.0286
       3d  -2477.0803  4s   -850.0178  4p   -639.2250  4d   -395.6123  4f   -126.6443
       5s   -137.8224  5p    -79.5221
  10-  1s -32968.5482  2s  -5086.7470  2p  -4564.1634  3s  -1020.4598  3p   -851.2047
       3d   -597.9410  4s   -172.8121  4p   -119.8011  4d    -42.5767
  11-  1s -32968.4820  2s  -5086.6811  2p  -4564.0974  3s  -1020.3941  3p   -851.1390
       3d   -597.8753  4s   -172.7468  4p   -119.7359  4d    -42.5116
  12-  1s -32968.2159  2s  -5086.4116  2p  -4563.8285  3s  -1020.1195  3p   -850.8644
       3d   -597.6012  4s   -172.4635  4p   -119.4515  4d    -42.2245

 E-fermi :   1.5666     XC(G=0):  -7.7501     alpha+bet : -7.1939

 k-point     1 :       0.0000    0.0000    0.0000
  band No.  band energies     occupation
      1     -18.2653      2.00000
      2     -15.0545      2.00000
      3     -15.0303      2.00000
      4     -14.9904      2.00000
      5     -14.9724      2.00000
      6     -14.9681      2.00000
      7     -11.3064      2.00000
      8     -10.8394      2.00000
      9     -10.1284      2.00000
     10      -9.8489      2.00000
     11      -7.7812      2.00000
     12      -7.6163      2.00000
     13      -5.7976      2.00000
     14      -5.3360      2.00000
     15      -3.5047      2.00000
     16      -3.4896      2.00000
     17      -2.1223      2.00000
     18      -2.1218      2.00000
     19      -1.9660      2.00000
     20      -0.0055      2.00000
     21       0.0281      2.00000
     22       0.1056      2.00000
     23       0.2361      2.00000
     24       0.5049      2.00000
     25       0.5164      2.00000
     26       5.0339      0.00000
     27       5.9645      0.00000
     28       6.1182      0.00000
     29       6.3878      0.00000
     30       6.4840      0.00000
     31       6.5188      0.00000
     32       7.2207      0.00000

[...]

 k-point   112 :       0.5000    0.5000    0.5000
  band No.  band energies     occupation
      1     -18.2623      2.00000
      2     -15.0332      2.00000
      3     -15.0101      2.00000
      4     -14.9917      2.00000
      5     -14.9739      2.00000
      6     -14.9695      2.00000
      7     -11.3075      2.00000
      8     -10.4434      2.00000
      9     -10.3695      2.00000
     10     -10.0238      2.00000
     11      -7.7028      2.00000
     12      -7.5843      2.00000
     13      -7.0628      2.00000
     14      -5.7686      2.00000
     15      -3.5020      2.00000
     16      -3.4899      2.00000
     17      -1.0383      2.00000
     18      -0.6375      2.00000
     19      -0.5971      2.00000
     20       0.0561      2.00000
     21       0.1183      2.00000
     22       0.4373      2.00000
     23       0.8458      2.00000
     24       0.8493      2.00000
     25       1.4771      2.00000
     26       2.9616      0.00000
     27       2.9687      0.00000
     28       3.1899      0.00000
     29       5.6708      0.00000
     30       7.1996      0.00000
     31       7.6115      0.00000
     32       7.7912      0.00000

 soft charge-density along one line, spin component           1
         0         1         2         3         4         5         6         7         8         9
 total charge-density along one line

------------------------ aborting loop because EDIFF is reached ----------------------------------------

 total charge

# of ion     s       p       d       tot
  1        0.836   1.770   0.000   2.606
  2        1.218   2.784   0.000   4.001
  3        0.628   0.045   0.000   0.673
  4        0.627   0.045   0.000   0.672
  5        0.627   0.045   0.000   0.673
  6        0.594   0.078   0.000   0.672
  7        0.594   0.078   0.000   0.671
  8        0.589   0.078   0.000   0.667
  9        1.470   0.524   9.839  11.834
 10        1.505   2.791   0.009   4.305
 11        1.505   2.791   0.009   4.306
 12        1.506   2.781   0.008   4.295
tot       11.701  13.809   9.865  35.375

  FORCE on cell =-STRESS in cart. coord.  units (eV):
  Direction    XX          YY          ZZ          XY          YZ          ZX
  Alpha Z    46.46596    46.46596    46.46596
  Ewald    -631.85511  -642.25523  -667.21442    -0.07437    -0.09326    21.50540
  Hartree   354.19507   356.78650   341.26356    -0.04950    -0.05753    12.75417
  E(xc)    -199.62884  -199.64553  -199.68903    -0.00020    -0.00000     0.04848
  Local    -618.12187  -606.95257  -567.79615     0.12569     0.14517   -33.82263
  n-local   452.47222   449.32866   449.26238    -0.00161    -0.00005     0.33575
  augment    13.24042    13.23083    13.11739    -0.00015     0.00005     0.02816
  Kinetic   583.40608   583.14801   584.95290     0.00093     0.00432    -0.84053
  Fock        0.00000     0.00000     0.00000     0.00000     0.00000     0.00000
  Total       0.17393     0.10663     0.36259     0.00080    -0.00130     0.00879
  in kB       1.12139     0.68747     2.33777     0.00514    -0.00841     0.05668

 VOLUME and BASIS-vectors are now :
  energy-cutoff  :      500.00
  volume of cell :      248.50
      direct lattice vectors                 reciprocal lattice vectors
     6.290120125  0.000000000  0.000000000     0.158979476 -0.000001969  0.001001495
     0.000077694  6.273890018  0.000000000     0.000000000  0.159390744  0.000003893
    -0.039667571 -0.000153793  6.296915042     0.000000000  0.000000000  0.158807923

  length of vectors
     6.290120125  6.273890018  6.297039986     0.158982630  0.159390744  0.158807923

 FORCES acting on ions
    electron-ion (+dipol)            ewald-force                    non-local-force                 convergence-correction
   0.893E+02 -.819E-01 0.171E+02   -.969E+02 0.863E-01 -.179E+02   0.761E+01 -.341E-02 0.855E+00   0.378E-03 -.363E-05 0.339E-04
   -.423E+02 -.777E-02 0.335E+01   0.412E+02 0.321E-02 -.333E+01   0.105E+01 0.175E-02 -.740E-02   0.941E-04 0.148E-05 -.470E-04
   0.171E+02 0.537E-01 0.494E+02   -.184E+02 -.616E-01 -.550E+02   0.136E+01 0.789E-02 0.555E+01   0.414E-05 -.276E-06 0.212E-04
   0.252E+02 -.389E+02 -.176E+02   -.275E+02 0.435E+02 0.200E+02   0.226E+01 -.464E+01 -.244E+01   -.698E-05 -.279E-04 -.137E-04
   0.253E+02 0.387E+02 -.177E+02   -.275E+02 -.434E+02 0.202E+02   0.226E+01 0.463E+01 -.245E+01   -.659E-05 0.280E-04 -.142E-04
   -.270E+02 -.490E+02 0.270E+02   0.300E+02 0.546E+02 -.298E+02   -.300E+01 -.559E+01 0.278E+01   -.162E-03 -.339E-03 0.151E-03
   -.269E+02 0.490E+02 0.268E+02   0.299E+02 -.546E+02 -.296E+02   -.299E+01 0.560E+01 0.277E+01   -.162E-03 0.340E-03 0.150E-03
   -.144E+02 -.750E-01 -.582E+02   0.162E+02 0.820E-01 0.648E+02   -.182E+01 -.687E-02 -.654E+01   -.105E-03 -.347E-06 -.400E-03
   -.314E+02 0.633E-01 -.104E+02   0.304E+02 -.626E-01 0.101E+02   0.102E+01 -.730E-03 0.277E+00   -.374E-04 -.711E-06 -.183E-05
   -.110E+02 0.715E-01 0.415E+01   0.110E+02 -.738E-01 -.408E+01   0.104E-01 0.236E-02 -.723E-01   0.108E-03 0.336E-06 0.347E-04
   -.128E+02 -.219E-01 -.173E+02   0.128E+02 0.215E-01 0.179E+02   0.686E-04 0.419E-03 -.540E+00   0.105E-03 -.205E-06 0.209E-04
   0.166E+01 0.305E-01 -.695E+01   -.112E+01 -.291E-01 0.679E+01   -.539E+00 -.143E-02 0.150E+00   -.309E-04 0.638E-06 -.387E-04
   -.724E+01 0.133E-02 -.329E+00   -.124E-13 0.122E-14 -.444E-14   0.724E+01 -.136E-02 0.329E+00   0.178E-03 -.185E-05 -.104E-03

 POSITION                                       TOTAL-FORCE (eV/Angst)
      5.63915      6.27350      6.27384         0.001708      0.001004     -0.004320
      0.85821      6.27280      0.15665        -0.002072     -0.002811      0.010965
      5.40518      6.27196      5.19958         0.006332      0.000007     -0.003229
      5.26698      0.90190      0.45292        -0.001287     -0.000129     -0.004805
      5.26573      5.37368      0.45579        -0.001474     -0.000484     -0.004537
      1.26776      0.84227      6.03329         0.003292      0.003025      0.004911
      1.26657      5.42716      6.03557         0.002563     -0.000769      0.005862
      1.13753     -0.00001      1.16715        -0.004924      0.000138      0.003423
      2.97634      3.13707      2.99511        -0.002118      0.000011     -0.001877
      2.64610      3.13606      6.12444        -0.000892      0.000062     -0.000985
      2.72152      0.00020      3.18965        -0.001003     -0.000001      0.002517
      6.03902      3.13830      2.81942        -0.000125     -0.000052     -0.007925
    total drift:                                0.000457     -0.000033     -0.000110

  FREE ENERGIE OF THE ION-ELECTRON SYSTEM (eV)
  free  energy   TOTEN  =       -52.06948233 eV

  energy  without entropy=      -52.06948233  energy(sigma->0) =      -52.06948233

 writing wavefunctions

 total charge

# of ion     s       p       d       tot
  1        0.836   1.770   0.000   2.606
  2        1.218   2.784   0.000   4.001
  3        0.628   0.045   0.000   0.673
  4        0.627   0.045   0.000   0.672
  5        0.627   0.045   0.000   0.673
  6        0.594   0.078   0.000   0.672
  7        0.594   0.078   0.000   0.671
  8        0.589   0.078   0.000   0.667
  9        1.470   0.524   9.839  11.834
 10        1.505   2.791   0.009   4.305
 11        1.505   2.791   0.009   4.306
 12        1.506   2.781   0.008   4.295
tot       11.701  13.809   9.865  35.375