 vasp.5.3.5 31Mar14 (build Apr 15 2015 10:45:18) complex

 executed on             LinuxIFC date 2016.02.17  12:31:01

 INCAR:
 POTCAR:    PAW_PBE C 08Apr2002
 POTCAR:    PAW_PBE N 08Apr2002
 POTCAR:    PAW_PBE H 15Jun2001
 POTCAR:    PAW_PBE Pb_d 06Sep2000
 POTCAR:    PAW_PBE I 08Apr2002

 POTCAR:    PAW_PBE C 08Apr2002
   VRHFIN =C: s2p2

   TITEL  = PAW_PBE C 08Apr2002
   POMASS =   12.011; ZVAL   =    4.000    mass and valenz
   ENMAX  =  400.000; ENMIN  =  300.000 eV

 POTCAR:    PAW_PBE N 08Apr2002
   VRHFIN =N: s2p3

[...]

 POTCAR:    PAW_PBE H 15Jun2001
   VRHFIN =H: ultrasoft test

   TITEL  = PAW_PBE H 15Jun2001
   POMASS =    1.000; ZVAL   =    1.000    mass and valenz
   ENMAX  =  250.000; ENMIN  =  200.000 eV

 POTCAR:    PAW_PBE Pb_d 06Sep2000
   VRHFIN =Pb:

   TITEL  = PAW_PBE Pb_d 06Sep2000
   POMASS =  207.200; ZVAL   =   14.000    mass and valenz
   ENMAX  =  237.835; ENMIN  =  178.376 eV

 POTCAR:    PAW_PBE I 08Apr2002
   VRHFIN =I : s2p5

   TITEL  = PAW_PBE I 08Apr2002
   POMASS =  126.904; ZVAL   =    7.000    mass and valenz
   ENMAX  =  175.647; ENMIN  =  131.735 eV

  PAW_PBE C 08Apr2002                   :
  PAW_PBE N 08Apr2002                   :
  PAW_PBE H 15Jun2001                   :
  PAW_PBE Pb_d 06Sep2000                :
  PAW_PBE I 08Apr2002                   :

 POSCAR: MA-Pb-I (Github: hybrid-perovskites/2014
  positions in direct lattice
  velocities in cartesian coordinates
 exchange correlation table for  LEXCH =        8
   RHO(1)=    0.500       N(1)  =     2000
   RHO(2)=  100.500       N(2)  =     4000

 ion  position               nearest neighbor table
   1  0.903  1.000  0.996-   3 1.10   5 1.10   4 1.10   2 1.48
   2  0.137  1.000  0.025-   6 1.04   7 1.04   8 1.05   1 1.48
   3  0.865  1.000  0.826-   1 1.10
   4  0.838  0.144  0.072-   1 1.10
   5  0.838  0.857  0.072-   1 1.10
   6  0.208  0.134  0.958-   2 1.04
   7  0.207  0.865  0.958-   2 1.04
   8  0.182  0.000  0.185-   2 1.05
   9  0.476  0.500  0.476-  12 3.07  10 3.15  11 3.15  11 3.15  10 3.18  12 3.23
  10  0.427  0.500  0.973-   9 3.15   9 3.18
  11  0.436  0.000  0.507-   9 3.15   9 3.15
  12  0.963  0.500  0.448-   9 3.07   9 3.23

  LATTYP: Found a simple monoclinic cell.
 ALAT       =     6.2901201248
 B/A-ratio  =     0.9974197462
 C/A-ratio  =     1.4105278383
 COS(beta)  =    -0.7044835581

  Lattice vectors:

 A1 = (  -6.2901201248,   0.0000000000,   0.0000000000)
 A2 = (  -0.0000776940,  -6.2738900180,   0.0000000000)
 A3 = (   6.2504525538,  -0.0001537931,   6.2969150416)

Analysis of symmetry for initial positions (statically):
 Subroutine PRICEL returns:
 Original cell was already a primitive cell.

 Routine SETGRP: Setting up the symmetry group for a
 simple monoclinic supercell.

 Subroutine GETGRP returns: Found  1 space group operations
 (whereof  1 operations were pure point group operations)
 out of a pool of  4 trial point group operations.

The static configuration has the point symmetry C_1 .

Analysis of symmetry for dynamics (positions and initial velocities):
 Subroutine PRICEL returns:
 Original cell was already a primitive cell.

 Routine SETGRP: Setting up the symmetry group for a
 simple monoclinic supercell.

 Subroutine GETGRP returns: Found  1 space group operations
 (whereof  1 operations were pure point group operations)
 out of a pool of  4 trial point group operations.

The dynamic configuration has the point symmetry C_1 .

 KPOINTS: Automatically generated mesh
  k-points in reciprocal lattice
Space group operators:
 irot       det(A)        alpha          n_x          n_y          n_z        tau_x        tau_y        tau_z
    1     1.000000     0.000000     1.000000     0.000000     0.000000     0.000000     0.000000     0.000000

 Subroutine IBZKPT_HF returns following result:

 Found    868 k-points in 1st BZ
 the following    868 k-points will be used (e.g. in the exchange kernel)
 Following reciprocal coordinates:   # in IRBZ
  0.000000  0.000000  0.000000       1 t-inv F
  0.166667  0.000000  0.000000       2 t-inv F
  0.333333  0.000000  0.000000       3 t-inv F
  0.500000  0.000000  0.000000       4 t-inv F
  0.000000  0.166667  0.000000       5 t-inv F
  0.166667  0.166667  0.000000       6 t-inv F
  0.333333  0.166667  0.000000       7 t-inv F
  0.500000  0.166667  0.000000       8 t-inv F
 -0.333333  0.166667  0.000000       9 t-inv F
 -0.166667  0.166667  0.000000      10 t-inv F
  0.000000  0.333333  0.000000      11 t-inv F
  0.166667  0.333333  0.000000      12 t-inv F
  0.333333  0.333333  0.000000      13 t-inv F
  0.500000  0.333333  0.000000      14 t-inv F
 -0.333333  0.333333  0.000000      15 t-inv F
 -0.166667  0.333333  0.000000      16 t-inv F
  0.000000  0.500000  0.000000      17 t-inv F
  0.166667  0.500000  0.000000      18 t-inv F
  0.333333  0.500000  0.000000      19 t-inv F
  0.500000  0.500000  0.000000      20 t-inv F
  0.000000  0.000000  0.166667      21 t-inv F
  0.166667  0.000000  0.166667      22 t-inv F
  0.333333  0.000000  0.166667      23 t-inv F
  0.500000  0.000000  0.166667      24 t-inv F
 -0.333333  0.000000  0.166667      25 t-inv F
 -0.166667  0.000000  0.166667      26 t-inv F
  0.000000  0.166667  0.166667      27 t-inv F
  0.166667  0.166667  0.166667      28 t-inv F
  0.333333  0.166667  0.166667      29 t-inv F
  0.500000  0.166667  0.166667      30 t-inv F
 -0.333333  0.166667  0.166667      31 t-inv F
 -0.166667  0.166667  0.166667      32 t-inv F
  0.000000  0.333333  0.166667      33 t-inv F
  0.166667  0.333333  0.166667      34 t-inv F
  0.333333  0.333333  0.166667      35 t-inv F
  0.500000  0.333333  0.166667      36 t-inv F
 -0.333333  0.333333  0.166667      37 t-inv F
 -0.166667  0.333333  0.166667      38 t-inv F
  0.000000  0.500000  0.166667      39 t-inv F
  0.166667  0.500000  0.166667      40 t-inv F
  0.333333  0.500000  0.166667      41 t-inv F
  0.500000  0.500000  0.166667      42 t-inv F
 -0.333333  0.500000  0.166667      43 t-inv F
 -0.166667  0.500000  0.166667      44 t-inv F
  0.000000 -0.333333  0.166667      45 t-inv F
  0.166667 -0.333333  0.166667      46 t-inv F
  0.333333 -0.333333  0.166667      47 t-inv F
  0.500000 -0.333333  0.166667      48 t-inv F
 -0.333333 -0.333333  0.166667      49 t-inv F
 -0.166667 -0.333333  0.166667      50 t-inv F
  0.000000 -0.166667  0.166667      51 t-inv F
  0.166667 -0.166667  0.166667      52 t-inv F
  0.333333 -0.166667  0.166667      53 t-inv F
  0.500000 -0.166667  0.166667      54 t-inv F
 -0.333333 -0.166667  0.166667      55 t-inv F
 -0.166667 -0.166667  0.166667      56 t-inv F
  0.000000  0.000000  0.333333      57 t-inv F
  0.166667  0.000000  0.333333      58 t-inv F
  0.333333  0.000000  0.333333      59 t-inv F
  0.500000  0.000000  0.333333      60 t-inv F
[...]
 -0.333333  0.000000 -0.500000      95 t-inv T
  0.000000 -0.166667 -0.500000      97 t-inv T
 -0.166667 -0.166667 -0.500000      98 t-inv T
 -0.333333 -0.166667 -0.500000      99 t-inv T
 -0.500000 -0.166667 -0.500000     100 t-inv T
  0.333333 -0.166667 -0.500000     101 t-inv T
  0.166667 -0.166667 -0.500000     102 t-inv T
  0.000000 -0.333333 -0.500000     103 t-inv T
 -0.166667 -0.333333 -0.500000     104 t-inv T
 -0.333333 -0.333333 -0.500000     105 t-inv T
 -0.500000 -0.333333 -0.500000     106 t-inv T
  0.333333 -0.333333 -0.500000     107 t-inv T
  0.166667 -0.333333 -0.500000     108 t-inv T
 -0.166667 -0.500000 -0.500000     110 t-inv T
 -0.333333 -0.500000 -0.500000     111 t-inv T

 I would recommend the setting:
   dimension x,y,z NGX =    46 NGY =   46 NGZ =   46
 SYSTEM =  Name
 POSCAR =  MA-Pb-I (Github: hybrid-perovskites/2014

 Startparameter for this run:
   NWRITE =      2    write-flag & timer
   PREC   = accura    normal or accurate (medium, high low for compatibility)
   ISTART =      0    job   : 0-new  1-cont  2-samecut
   ICHARG =      2    charge: 1-file 2-atom 10-const
   ISPIN  =      1    spin polarized calculation?
   LNONCOLLINEAR =      F non collinear calculations
   LSORBIT =      F    spin-orbit coupling
   INIWAV =      1    electr: 0-lowe 1-rand  2-diag
   LASPH  =      F    aspherical Exc in radial PAW
   METAGGA=      F    non-selfconsistent MetaGGA calc.

 Electronic Relaxation 1
   ENCUT  =  500.0 eV  36.75 Ry    6.06 a.u.  11.47 11.44 11.48*2*pi/ulx,y,z
   ENINI  =  500.0     initial cutoff
   ENAUG  =  644.9 eV  augmentation charge cutoff
   NELM   =     60;   NELMIN=  5; NELMDL=  0     # of ELM steps
   EDIFF  = 0.1E-05   stopping-criterion for ELM
   LREAL  =      F    real-space projection
   NLSPLINE    = F    spline interpolate recip. space projectors
   LCOMPAT=      F    compatible to vasp.4.4
   GGA_COMPAT  = T    GGA compatible to vasp.4.4-vasp.4.6
   LMAXPAW     = -100 max onsite density
   LMAXMIX     =    2 max onsite mixed and CHGCAR
   VOSKOWN=      0    Vosko Wilk Nusair interpolation
   ROPT   =    0.00000   0.00000   0.00000   0.00000
   ROPT   =    0.00000
 Ionic relaxation
   EDIFFG = -.5E-02   stopping-criterion for IOM
   NSW    =      1    number of steps for IOM
   NBLOCK =      1;   KBLOCK =      1    inner block; outer block
   IBRION =      2    ionic relax: 0-MD 1-quasi-New 2-CG
   NFREE  =      1    steps in history (QN), initial steepest desc. (CG)
   ISIF   =      3    stress and relaxation
   IWAVPR =     11    prediction:  0-non 1-charg 2-wave 3-comb
   ISYM   =      2    0-nonsym 1-usesym 2-fastsym
   LCORR  =      T    Harris-Foulkes like correction to forces

   POTIM  = 0.5000    time-step for ionic-motion
   TEIN   =    0.0    initial temperature
   TEBEG  =    0.0;   TEEND  =   0.0 temperature during run
   SMASS  =  -3.00    Nose mass-parameter (am)
   estimated Nose-frequenzy (Omega)   =  0.10E-29 period in steps =****** mass=  -0.904E-27a.u.
   SCALEE = 1.0000    scale energy and forces
   NPACO  =    256;   APACO  = 16.0  distance and # of slots for P.C.
   PSTRESS=    0.0 pullay stress

  Mass of Ions in am
   POMASS =  12.01 14.00  1.00207.20126.90
  Ionic Valenz
   ZVAL   =   4.00  5.00  1.00 14.00  7.00
  Atomic Wigner-Seitz radii
  virtual crystal weights
   VCA    =   1.00  1.00  1.00  1.00  1.00
   NELECT =      50.0000    total number of electrons
   NUPDOWN=      -1.0000    fix difference up-down

 DOS related values:
   EMIN   =  10.00;   EMAX   =-10.00  energy-range for DOS
   EFERMI =   0.00
   ISMEAR =     0;   SIGMA  =   0.01  broadening in eV -4-tet -1-fermi 0-gaus

 Electronic relaxation 2 (details)
   IALGO  =     58    algorithm
   LDIAG  =      T    sub-space diagonalisation (order eigenvalues)
   LSUBROT=      F    optimize rotation matrix (better conditioning)
   TURBO    =      0    0=normal 1=particle mesh
   IRESTART =      0    0=no restart 2=restart with 2 vectors
   NREBOOT  =      0    no. of reboots
   NMIN     =      0    reboot dimension
   EREF     =   0.00    reference energy to select bands
   IMIX   =      4    mixing-type and parameters
     AMIX     =   0.40;   BMIX     =  1.00
     AMIX_MAG =   1.60;   BMIX_MAG =  1.00
     AMIN     =   0.01
     WC   =   100.;   INIMIX=   1;  MIXPRE=   1;  MAXMIX= -45

 Intra band minimization:
   WEIMIN = 0.0010     energy-eigenvalue tresh-hold
[...]
 k-point ** :   0.5000 0.5000 0.5000  plane waves:    6272
 k-point ** :   0.0000 0.0000 0.0000  plane waves:    6329
 k-point ** :   0.0000 0.0050 0.0000  plane waves:    6333
 k-point ** :   0.0000 0.0100 0.0000  plane waves:    6337
 k-point ** :   0.0000 0.0150 0.0000  plane waves:    6335
 k-point ** :   0.0000 0.0200 0.0000  plane waves:    6331
 k-point ** :   0.0000 0.0250 0.0000  plane waves:    6329
 k-point ** :   0.0000 0.0300 0.0000  plane waves:    6327
 k-point ** :   0.0000 0.0350 0.0000  plane waves:    6327
 k-point ** :   0.0000 0.0400 0.0000  plane waves:    6329
 k-point ** :   0.0000 0.0450 0.0000  plane waves:    6325
 k-point ** :   0.0000 0.0500 0.0000  plane waves:    6325
 k-point ** :   0.0000 0.0550 0.0000  plane waves:    6328
 k-point ** :   0.0000 0.0600 0.0000  plane waves:    6327
 k-point ** :   0.0000 0.0650 0.0000  plane waves:    6327
 k-point ** :   0.0000 0.0700 0.0000  plane waves:    6325
 k-point ** :   0.0000 0.0750 0.0000  plane waves:    6325
 k-point ** :   0.0000 0.0800 0.0000  plane waves:    6325
 k-point ** :   0.0000 0.0850 0.0000  plane waves:    6325
 k-point ** :   0.0000 0.0900 0.0000  plane waves:    6328
 k-point ** :   0.0000 0.0950 0.0000  plane waves:    6327
 k-point ** :   0.0000 0.1000 0.0000  plane waves:    6321
 k-point ** :   0.0000 0.1050 0.0000  plane waves:    6321
 k-point ** :   0.0000 0.1100 0.0000  plane waves:    6317
 k-point ** :   0.0000 0.1150 0.0000  plane waves:    6315
 k-point ** :   0.0000 0.1200 0.0000  plane waves:    6314
 k-point ** :   0.0000 0.1250 0.0000  plane waves:    6315
 k-point ** :   0.0000 0.1300 0.0000  plane waves:    6313
 k-point ** :   0.0000 0.1350 0.0000  plane waves:    6313
 k-point ** :   0.0000 0.1400 0.0000  plane waves:    6319
 k-point ** :   0.0000 0.1450 0.0000  plane waves:    6317
 k-point ** :   0.0000 0.1500 0.0000  plane waves:    6317
 k-point ** :   0.0000 0.1550 0.0000  plane waves:    6323
 k-point ** :   0.0000 0.1600 0.0000  plane waves:    6325
 k-point ** :   0.0000 0.1650 0.0000  plane waves:    6327
 k-point ** :   0.0000 0.1700 0.0000  plane waves:    6329
 k-point ** :   0.0000 0.1750 0.0000  plane waves:    6331
 k-point ** :   0.0000 0.1800 0.0000  plane waves:    6334
 k-point ** :   0.0000 0.1850 0.0000  plane waves:    6335
 k-point ** :   0.0000 0.1900 0.0000  plane waves:    6333
 k-point ** :   0.0000 0.1950 0.0000  plane waves:    6333
 k-point ** :   0.0000 0.2000 0.0000  plane waves:    6329
 k-point ** :   0.0000 0.2050 0.0000  plane waves:    6331
 k-point ** :   0.0000 0.2100 0.0000  plane waves:    6329
 k-point ** :   0.0000 0.2150 0.0000  plane waves:    6331
 k-point ** :   0.0000 0.2200 0.0000  plane waves:    6327
 k-point ** :   0.0000 0.2250 0.0000  plane waves:    6321
 k-point ** :   0.0000 0.2300 0.0000  plane waves:    6322
[...]
 k-point ** :   0.0536 0.5000 0.0536  plane waves:    6345
 k-point ** :   0.0500 0.5000 0.0500  plane waves:    6350
 k-point ** :   0.0464 0.5000 0.0464  plane waves:    6348
 k-point ** :   0.0429 0.5000 0.0429  plane waves:    6348
 k-point ** :   0.0393 0.5000 0.0393  plane waves:    6350
 k-point ** :   0.0357 0.5000 0.0357  plane waves:    6352
 k-point ** :   0.0321 0.5000 0.0321  plane waves:    6354
 k-point ** :   0.0286 0.5000 0.0286  plane waves:    6356
 k-point ** :   0.0250 0.5000 0.0250  plane waves:    6360
 k-point ** :   0.0214 0.5000 0.0214  plane waves:    6360
 k-point ** :   0.0179 0.5000 0.0179  plane waves:    6366
 k-point ** :   0.0143 0.5000 0.0143  plane waves:    6364
 k-point ** :   0.0107 0.5000 0.0107  plane waves:    6362
 k-point ** :   0.0071 0.5000 0.0071  plane waves:    6366
 k-point ** :   0.0036 0.5000 0.0036  plane waves:    6362

 maximum and minimum number of plane-waves per node :      1607     1539

 maximum number of plane-waves:      6366
 maximum index in each direction:
   IXMAX=   11   IYMAX=   11   IZMAX=   11
   IXMIN=  -11   IYMIN=  -11   IZMIN=  -11

 NGX is ok and might be reduce to  46
 NGY is ok and might be reduce to  46
 NGZ is ok and might be reduce to  46

 parallel 3D FFT for wavefunctions:
    minimum data exchange during FFTs selected (reduces bandwidth)
 parallel 3D FFT for charge:
    minimum data exchange during FFTs selected (reduces bandwidth)

 FFT grid for exact exchange (Hartree Fock)
  NGX = 24; NGY = 24; NGZ = 24

 Radii for the augmentation spheres in the non-local exchange
 for species   1 augmentation radius   0.944 (default was   0.699)
       energy cutoff for augmentation   2000.0
 for species   2 augmentation radius   0.957 (default was   0.709)
       energy cutoff for augmentation   2000.0
 for species   3 augmentation radius   0.702 (default was   0.520)
       energy cutoff for augmentation   2000.0
 for species   4 augmentation radius   1.558 (default was   1.154)
       energy cutoff for augmentation   2000.0
 for species   5 augmentation radius   1.603 (default was   1.188)
       energy cutoff for augmentation   2000.0

 real space projection operators:
  max/ min on nodes  :        204.88        191.10

 Broyden mixing: mesh for mixing (old mesh)
   NGX = 23   NGY = 23   NGZ = 23
  (NGX  = 96   NGY  = 96   NGZ  = 96)
  gives a total of  12167 points

 initial charge density was supplied:
 charge density of overlapping atoms calculated
 number of electron      50.0000000 magnetization
 charge density for first step will be calculated from the start-wavefunctions

 Maximum index for augmentation-charges         1654 (set IRDMAX)

 First call to EWALD:  gamma=   0.282
 Maximum number of real-space cells 3x 3x 3
 Maximum number of reciprocal cells 3x 3x 3

 FEWALD executed in parallel

----------------------------------------- Iteration    1(   1)  ---------------------------------------

 eigenvalue-minimisations  : 79456
 total energy-change (2. order) : 0.2167644E+04  (-0.1208779E+05)
 number of electron      50.0000000 magnetization
 augmentation part       50.0000000 magnetization

 Free energy of the ion-electron system (eV)
  alpha Z        PSCENC =        46.46595848
  Ewald energy   TEWEN  =     -1941.32201603
  -Hartree energ DENC   =     -1015.77699842
  -exchange      EXHF   =         0.00000000
  -V(xc)+E(xc)   XCENC  =        31.89644362
  PAW double counting   =      2588.52035627    -2506.37953360
  entropy T*S    EENTRO =        -0.00011247
  eigenvalues    EBANDS =      1879.21458850
  atomic energy  EATOM  =      3085.02549811
  free energy    TOTEN  =      2167.64418447 eV

  energy without entropy =     2167.64429694  energy(sigma->0) =     2167.64424070

[...]

 eigenvalue-minimisations  : 56880
 total energy-change (2. order) :-0.1612616E+04  (-0.1526640E+04)
 number of electron      50.0000000 magnetization
 augmentation part       50.0000000 magnetization

[...]

----------------------------------------- Iteration    1(  21)  ---------------------------------------

 eigenvalue-minimisations  :     0
 total energy-change (2. order) :-0.3226842E-06  (-0.2181162E-06)
 number of electron      49.9999995 magnetization
 augmentation part        1.1665224 magnetization

 Free energy of the ion-electron system (eV)
  alpha Z        PSCENC =        46.46595848
  Ewald energy   TEWEN  =     -1941.32201603
  -Hartree energ DENC   =     -1054.71667537
  -exchange      EXHF   =        96.12157655
  -V(xc)+E(xc)   XCENC  =        34.93945582
  PAW double counting   =      4497.13602511    -4414.22078568
  entropy T*S    EENTRO =        -0.00000000
  eigenvalues    EBANDS =      -409.30767086
  atomic energy  EATOM  =      3085.02549811
  free energy    TOTEN  =       -59.87863386 eV

  energy without entropy =      -59.87863386  energy(sigma->0) =      -59.87863386

  average scaling for gradient   0.8094

 the core state eigenenergies are
   1-  1s    -49.6764
   2-  1s    -64.9167
   3-
   4-
   5-
   6-
   7-
   8-
   9-  1s    -89.8763  2s    -89.6977  2p    -89.6977  3s    -89.6977  3p    -89.6977
       3d    -89.6977  4s    -89.6977  4p    -89.6977  4d    -89.6977  4f    -89.6977
       5s    -89.6977  5p    -89.6977
  10-  1s    -89.9680  2s    -90.1299  2p    -90.1299  3s    -90.1299  3p    -90.1299
       3d    -90.1299  4s    -90.1299  4p    -90.1299  4d    -90.1299
  11-  1s    -89.9053  2s    -90.0674  2p    -90.0674  3s    -90.0674  3p    -90.0674
       3d    -90.0674  4s    -90.0674  4p    -90.0674  4d    -90.0674
  12-  1s    -89.6039  2s    -89.7547  2p    -89.7547  3s    -89.7547  3p    -89.7547
       3d    -89.7547  4s    -89.7547  4p    -89.7547  4d    -89.7547

 E-fermi :   1.2964     XC(G=0):  -6.3696     alpha+bet : -7.1939

 k-point     1 :       0.0000    0.0000    0.0000
  band No.  band energies     occupation
      1     -20.8447      2.00000
      2     -17.1708      2.00000
      3     -17.1462      2.00000
      4     -17.0982      2.00000
      5     -17.0802      2.00000
      6     -17.0758      2.00000
      7     -13.3012      2.00000
      8     -12.3663      2.00000
      9     -11.5769      2.00000
     10     -11.2836      2.00000
     11      -9.2635      2.00000
     12      -9.0895      2.00000
     13      -7.0438      2.00000
     14      -6.0260      2.00000
     15      -4.7467      2.00000
     16      -4.7301      2.00000
     17      -2.8280      2.00000
     18      -2.8261      2.00000
     19      -2.6560      2.00000
     20      -0.6280      2.00000
     21      -0.6052      2.00000
     22      -0.5259      2.00000
     23      -0.3721      2.00000
     24      -0.1089      2.00000
     25      -0.0943      2.00000
     26       5.5337      0.00000
     27       6.4573      0.00000
     28       6.6224      0.00000
     29       6.8626      0.00000
     30       6.9965      0.00000
     31       7.0167      0.00000
     32       8.9987      0.00000

[...]

 k-point   764 :       0.0036    0.5000    0.0036
  band No.  band energies     occupation
      1     -20.8437      2.00000
      2     -17.1632      2.00000
      3     -17.1407      2.00000
      4     -17.0990      2.00000
      5     -17.0802      2.00000
      6     -17.0767      2.00000
      7     -13.2943      2.00000
      8     -12.1474      2.00000
      9     -11.8287      2.00000
     10     -11.3462      2.00000
     11      -9.1574      2.00000
     12      -9.1021      2.00000
     13      -7.0726      2.00000
     14      -6.7167      2.00000
     15      -4.7817      2.00000
     16      -4.7354      2.00000
     17      -2.6903      2.00000
     18      -2.5026      2.00000
     19      -1.1982      2.00000
     20      -0.9294      2.00000
     21      -0.7704      2.00000
     22      -0.4057      2.00000
     23      -0.3781      2.00000
     24      -0.1201      2.00000
     25       0.2027      2.00000
     26       4.1366      0.00000
     27       6.5415      0.00000
     28       6.8114      0.00000
     29       7.1054      0.00000
     30       7.6056      0.00000
     31       7.5878      0.00000
     32       8.2608      0.00000

 soft charge-density along one line, spin component           1
         0         1         2         3         4         5         6         7         8         9
 total charge-density along one line

------------------------ aborting loop because EDIFF is reached ----------------------------------------

 total charge

# of ion     s       p       d       tot
  1        0.844   1.760   0.000   2.604
  2        1.226   2.788   0.000   4.014
  3        0.638   0.046   0.000   0.684
  4        0.637   0.046   0.000   0.683
  5        0.637   0.046   0.000   0.683
  6        0.599   0.080   0.000   0.679
  7        0.599   0.080   0.000   0.679
  8        0.594   0.080   0.000   0.674
  9        1.519   0.477   9.846  11.841
 10        1.504   2.897   0.008   4.409
 11        1.504   2.897   0.008   4.409
 12        1.505   2.885   0.007   4.397
tot       11.806  14.081   9.870  35.756

  FORCE on cell =-STRESS in cart. coord.  units (eV):
  Direction    XX          YY          ZZ          XY          YZ          ZX
  Alpha Z    46.46596    46.46596    46.46596
  Ewald    -631.85511  -642.25523  -667.21442    -0.07437    -0.09326    21.50540
  Hartree   355.18363   357.51196   342.01493    -0.04920    -0.05742    12.72034
  E(xc)    -154.50013  -154.51188  -154.56229    -0.00019     0.00001     0.04916
  Local    -620.76878  -609.60467  -570.45091     0.12509     0.14509   -33.74839
  n-local   534.15745   531.24657   531.17879    -0.00151     0.00001     0.31548
  augment    11.84431    11.81336    11.70558    -0.00009     0.00002     0.01514
  Kinetic   581.37945   580.86902   582.59392     0.00058     0.00441    -0.74586
  Fock            NaN         NaN         NaN         NaN         NaN         NaN
  Total           NaN         NaN         NaN         NaN         NaN         NaN
  in kB           NaN         NaN         NaN         NaN         NaN         NaN

 VOLUME and BASIS-vectors are now :
  energy-cutoff  :      500.00
  volume of cell :      248.50
      direct lattice vectors                 reciprocal lattice vectors
     6.290120125  0.000000000  0.000000000     0.158979476 -0.000001969  0.001001495
     0.000077694  6.273890018  0.000000000     0.000000000  0.159390744  0.000003893
    -0.039667571 -0.000153793  6.296915042     0.000000000  0.000000000  0.158807923

  length of vectors
     6.290120125  6.273890018  6.297039986     0.158982630  0.159390744  0.158807923

 FORCES acting on ions:
    Electron-Ion                     Ewald-Force                    Non-Local-Force
   0.889E+02 -.817E-01 0.171E+02   -.969E+02 0.863E-01 -.179E+02   0.730E+01 -.335E-02 0.825E+00
   -.422E+02 -.768E-02 0.335E+01   0.412E+02 0.321E-02 -.333E+01   0.141E+01 0.128E-02 0.668E-01
   0.171E+02 0.540E-01 0.496E+02   -.184E+02 -.616E-01 -.550E+02   0.135E+01 0.779E-02 0.547E+01
   0.253E+02 -.390E+02 -.177E+02   -.275E+02 0.435E+02 0.200E+02   0.223E+01 -.458E+01 -.241E+01
   0.253E+02 0.389E+02 -.178E+02   -.275E+02 -.434E+02 0.202E+02   0.224E+01 0.457E+01 -.242E+01
   -.271E+02 -.493E+02 0.271E+02   0.300E+02 0.546E+02 -.298E+02   -.297E+01 -.554E+01 0.275E+01
   -.270E+02 0.493E+02 0.270E+02   0.299E+02 -.546E+02 -.296E+02   -.296E+01 0.555E+01 0.273E+01
   -.145E+02 -.753E-01 -.586E+02   0.162E+02 0.820E-01 0.648E+02   -.182E+01 -.679E-02 -.648E+01
   -.317E+02 0.635E-01 -.104E+02   0.304E+02 -.626E-01 0.101E+02   0.114E+01 -.908E-03 0.328E+00
   -.110E+02 0.715E-01 0.416E+01   0.110E+02 -.738E-01 -.408E+01   0.607E-01 0.229E-02 -.782E-01
   -.128E+02 -.220E-01 -.173E+02   0.128E+02 0.215E-01 0.179E+02   0.351E-01 0.456E-03 -.511E+00
   0.167E+01 0.305E-01 -.696E+01   -.112E+01 -.291E-01 0.679E+01   -.551E+00 -.155E-02 0.176E+00
   -.800E+01 0.222E-02 -.499E+00   -.124E-13 0.122E-14 -.444E-14   0.746E+01 -.191E-02 0.455E+00

 POSITION                                       TOTAL-FORCE (eV/Angst)
      5.63915      6.27350      6.27384              NaN           NaN           NaN
      0.85821      6.27280      0.15665              NaN           NaN           NaN
      5.40518      6.27196      5.19958              NaN           NaN           NaN
      5.26698      0.90190      0.45292              NaN           NaN           NaN
      5.26573      5.37368      0.45579              NaN           NaN           NaN
      1.26776      0.84227      6.03329              NaN           NaN           NaN
      1.26657      5.42716      6.03557              NaN           NaN           NaN
      1.13753     -0.00001      1.16715              NaN           NaN           NaN
      2.97634      3.13707      2.99511              NaN           NaN           NaN
      2.64610      3.13606      6.12444              NaN           NaN           NaN
      2.72152      0.00020      3.18965              NaN           NaN           NaN
      6.03902      3.13830      2.81942              NaN           NaN           NaN
    total drift:                                     NaN           NaN           NaN

  FREE ENERGIE OF THE ION-ELECTRON SYSTEM (eV)
  free  energy   TOTEN  =       -59.87863386 eV

  energy  without entropy=      -59.87863386  energy(sigma->0) =      -59.87863386

 reached required accuracy - stopping structural energy minimisation
 writing wavefunctions

 total charge

# of ion     s       p       d       tot
  1        0.844   1.760   0.000   2.604
  2        1.226   2.788   0.000   4.014
  3        0.638   0.046   0.000   0.684
  4        0.637   0.046   0.000   0.683
  5        0.637   0.046   0.000   0.683
  6        0.599   0.080   0.000   0.679
  7        0.599   0.080   0.000   0.679
  8        0.594   0.080   0.000   0.674
  9        1.519   0.477   9.846  11.841
 10        1.504   2.897   0.008   4.409
 11        1.504   2.897   0.008   4.409
 12        1.505   2.885   0.007   4.397
tot       11.806  14.081   9.870  35.756