 vasp.5.3.5 31Mar14 (build Apr 15 2015 10:45:18) complex

 executed on             LinuxIFC date 2016.02.15  14:54:10

 INCAR:
 POTCAR:    PAW_PBE Ga_d 06Jul2010
 POTCAR:    PAW_PBE As 22Sep2009

 POTCAR:    PAW_PBE Ga_d 06Jul2010
   VRHFIN =Ga: s2p1

   TITEL  = PAW_PBE Ga_d 06Jul2010
   POMASS =   69.723; ZVAL   =   13.000    mass and valenz
   ENMAX  =  282.691; ENMIN  =  212.018 eV

 POTCAR:    PAW_PBE As 22Sep2009
   VRHFIN =As: s2p3

   TITEL  = PAW_PBE As 22Sep2009
   POMASS =   74.922; ZVAL   =    5.000    mass and valenz
   ENMAX  =  208.702; ENMIN  =  156.526 eV

  PAW_PBE Ga_d 06Jul2010                :
  PAW_PBE As 22Sep2009                  :

 POSCAR: GaAs (Madelung Handbook, RT)
  positions in direct lattice
  velocities in cartesian coordinates
 exchange correlation table for  LEXCH =        8
   RHO(1)=    0.500       N(1)  =     2000
   RHO(2)=  100.500       N(2)  =     4000

 ion  position               nearest neighbor table
   1  0.000  0.000  0.000-   2 2.45   2 2.45   2 2.45   2 2.45
   2  0.250  0.250  0.250-   1 2.45   1 2.45   1 2.45   1 2.45

  LATTYP: Found a face centered cubic cell.
 ALAT       =     5.6536000000

  Lattice vectors:

 A1 = (   2.8268000000,   2.8268000000,   0.0000000000)
 A2 = (   2.8268000000,   0.0000000000,  -2.8268000000)
 A3 = (   0.0000000000,   2.8268000000,  -2.8268000000)

Analysis of symmetry for initial positions (statically):
 Subroutine PRICEL returns:
 Original cell was already a primitive cell.

 Routine SETGRP: Setting up the symmetry group for a
 face centered cubic supercell.

 Subroutine GETGRP returns: Found 24 space group operations
 (whereof 24 operations were pure point group operations)
 out of a pool of 48 trial point group operations.

The static configuration has the point symmetry T_d .

Analysis of symmetry for dynamics (positions and initial velocities):
 Subroutine PRICEL returns:
 Original cell was already a primitive cell.

 Routine SETGRP: Setting up the symmetry group for a
 face centered cubic supercell.

 Subroutine GETGRP returns: Found 24 space group operations
 (whereof 24 operations were pure point group operations)
 out of a pool of 48 trial point group operations.

The dynamic configuration has the point symmetry T_d .

 KPOINTS: Automatically generated mesh
  k-points in reciprocal lattice
Space group operators:
 irot       det(A)        alpha          n_x          n_y          n_z        tau_x        tau_y        tau_z
    1     1.000000     0.000000     1.000000     0.000000     0.000000     0.000000     0.000000     0.000000
    2     1.000000   120.000000    -0.577350    -0.577350     0.577350     0.000000     0.000000     0.000000
    3     1.000000   120.000000     0.577350     0.577350    -0.577350     0.000000     0.000000     0.000000
    4    -1.000000    90.000000    -1.000000     0.000000     0.000000     0.000000     0.000000     0.000000
    5    -1.000000   180.000000     0.707107     0.707107     0.000000     0.000000     0.000000     0.000000
    6    -1.000000    90.000000     0.000000     1.000000     0.000000     0.000000     0.000000     0.000000
    7     1.000000   180.000000     1.000000     0.000000     0.000000     0.000000     0.000000     0.000000
    8     1.000000   120.000000     0.577350     0.577350     0.577350     0.000000     0.000000     0.000000
    9     1.000000   120.000000    -0.577350     0.577350     0.577350     0.000000     0.000000     0.000000
   10    -1.000000    90.000000     1.000000     0.000000     0.000000     0.000000     0.000000     0.000000
   11    -1.000000    90.000000     0.000000     0.000000     1.000000     0.000000     0.000000     0.000000
   12    -1.000000   180.000000     0.707107     0.000000    -0.707107     0.000000     0.000000     0.000000
   13     1.000000   120.000000     0.577350    -0.577350    -0.577350     0.000000     0.000000     0.000000
   14     1.000000   120.000000     0.577350    -0.577350     0.577350     0.000000     0.000000     0.000000
   15     1.000000   180.000000     0.000000     0.000000     1.000000     0.000000     0.000000     0.000000
   16    -1.000000    90.000000     0.000000    -1.000000     0.000000     0.000000     0.000000     0.000000
   17    -1.000000   180.000000     0.000000    -0.707107     0.707107     0.000000     0.000000     0.000000
   18    -1.000000    90.000000     0.000000     0.000000    -1.000000     0.000000     0.000000     0.000000
   19     1.000000   120.000000    -0.577350    -0.577350    -0.577350     0.000000     0.000000     0.000000
   20     1.000000   180.000000     0.000000     1.000000     0.000000     0.000000     0.000000     0.000000
   21     1.000000   120.000000    -0.577350     0.577350    -0.577350     0.000000     0.000000     0.000000
   22    -1.000000   180.000000     0.707107    -0.707107     0.000000     0.000000     0.000000     0.000000
   23    -1.000000   180.000000     0.000000     0.707107     0.707107     0.000000     0.000000     0.000000
   24    -1.000000   180.000000     0.707107     0.000000     0.707107     0.000000     0.000000     0.000000

 Subroutine IBZKPT_HF returns following result:

 Found    797 k-points in 1st BZ
 the following    797 k-points will be used (e.g. in the exchange kernel)
 Following reciprocal coordinates:   # in IRBZ
  0.000000  0.000000  0.000000       1 t-inv F
  0.166667  0.000000  0.000000       2 t-inv F
  0.333333  0.000000  0.000000       3 t-inv F
  0.500000  0.000000  0.000000       4 t-inv F
  0.166667  0.166667  0.000000       5 t-inv F
  0.333333  0.166667  0.000000       6 t-inv F
  0.500000  0.166667  0.000000       7 t-inv F
 -0.333333  0.166667  0.000000       8 t-inv F
 -0.166667  0.166667  0.000000       9 t-inv F
  0.333333  0.333333  0.000000      10 t-inv F
  0.500000  0.333333  0.000000      11 t-inv F
 -0.333333  0.333333  0.000000      12 t-inv F
  0.500000  0.500000  0.000000      13 t-inv F
  0.500000  0.333333  0.166667      14 t-inv F
 -0.333333  0.333333  0.166667      15 t-inv F
 -0.333333  0.500000  0.166667      16 t-inv F
  0.000000  0.000000  0.000000      17 t-inv F
  0.005000  0.000000  0.005000      18 t-inv F
  0.010000  0.000000  0.010000      19 t-inv F
  0.015000  0.000000  0.015000      20 t-inv F
  0.020000  0.000000  0.020000      21 t-inv F
  0.025000  0.000000  0.025000      22 t-inv F
  0.030000  0.000000  0.030000      23 t-inv F
  0.035000  0.000000  0.035000      24 t-inv F
  0.040000  0.000000  0.040000      25 t-inv F
  0.045000  0.000000  0.045000      26 t-inv F
  0.050000  0.000000  0.050000      27 t-inv F
  0.055000  0.000000  0.055000      28 t-inv F
  0.060000  0.000000  0.060000      29 t-inv F
  0.065000  0.000000  0.065000      30 t-inv F
  0.070000  0.000000  0.070000      31 t-inv F
  0.075000  0.000000  0.075000      32 t-inv F
  0.080000  0.000000  0.080000      33 t-inv F
  0.085000  0.000000  0.085000      34 t-inv F
  0.090000  0.000000  0.090000      35 t-inv F
  0.095000  0.000000  0.095000      36 t-inv F
  0.100000  0.000000  0.100000      37 t-inv F
  0.105000  0.000000  0.105000      38 t-inv F
  0.110000  0.000000  0.110000      39 t-inv F
  0.115000  0.000000  0.115000      40 t-inv F
  0.120000  0.000000  0.120000      41 t-inv F
  0.125000  0.000000  0.125000      42 t-inv F
  0.130000  0.000000  0.130000      43 t-inv F
  0.135000  0.000000  0.135000      44 t-inv F
  0.140000  0.000000  0.140000      45 t-inv F
  0.145000  0.000000  0.145000      46 t-inv F
  0.150000  0.000000  0.150000      47 t-inv F
  0.155000  0.000000  0.155000      48 t-inv F
  0.160000  0.000000  0.160000      49 t-inv F
  0.165000  0.000000  0.165000      50 t-inv F
  0.170000  0.000000  0.170000      51 t-inv F
  0.175000  0.000000  0.175000      52 t-inv F
  0.180000  0.000000  0.180000      53 t-inv F
  0.185000  0.000000  0.185000      54 t-inv F
  0.190000  0.000000  0.190000      55 t-inv F
  0.195000  0.000000  0.195000      56 t-inv F
  0.200000  0.000000  0.200000      57 t-inv F
  0.205000  0.000000  0.205000      58 t-inv F
  0.210000  0.000000  0.210000      59 t-inv F
  0.215000  0.000000  0.215000      60 t-inv F
[...]
  0.166667  0.500000  0.166667       8 t-inv T
 -0.500000 -0.333333 -0.333333       8 t-inv T
  0.333333  0.000000 -0.166667       8 t-inv T
 -0.500000 -0.333333  0.000000      11 t-inv T
  0.000000 -0.500000 -0.333333      11 t-inv T
 -0.333333  0.000000 -0.500000      11 t-inv T
  0.333333  0.333333 -0.166667      11 t-inv T
  0.500000  0.166667  0.500000      11 t-inv T
 -0.333333 -0.500000  0.000000      11 t-inv T
 -0.166667  0.333333  0.333333      11 t-inv T
  0.500000  0.500000  0.166667      11 t-inv T
  0.000000 -0.333333 -0.500000      11 t-inv T
  0.333333 -0.166667  0.333333      11 t-inv T
  0.166667  0.500000  0.500000      11 t-inv T
 -0.500000  0.000000 -0.333333      11 t-inv T

 I would recommend the setting:
   dimension x,y,z NGX =    29 NGY =   29 NGZ =   29
 SYSTEM =  Name
 POSCAR =  GaAs (Madelung Handbook, RT)

 Startparameter for this run:
   NWRITE =      2    write-flag & timer
   PREC   = accura    normal or accurate (medium, high low for compatibility)
   ISTART =      0    job   : 0-new  1-cont  2-samecut
   ICHARG =      2    charge: 1-file 2-atom 10-const
   ISPIN  =      1    spin polarized calculation?
   LNONCOLLINEAR =      F non collinear calculations
   LSORBIT =      F    spin-orbit coupling
   INIWAV =      1    electr: 0-lowe 1-rand  2-diag
   LASPH  =      F    aspherical Exc in radial PAW
   METAGGA=      F    non-selfconsistent MetaGGA calc.

 Electronic Relaxation 1
   ENCUT  =  500.0 eV  36.75 Ry    6.06 a.u.   7.29  7.29  7.29*2*pi/ulx,y,z
   ENINI  =  500.0     initial cutoff
   ENAUG  =  490.7 eV  augmentation charge cutoff
   NELM   =     60;   NELMIN=  5; NELMDL=  0     # of ELM steps
   EDIFF  = 0.1E-05   stopping-criterion for ELM
   LREAL  =      F    real-space projection
   NLSPLINE    = F    spline interpolate recip. space projectors
   LCOMPAT=      F    compatible to vasp.4.4
   GGA_COMPAT  = T    GGA compatible to vasp.4.4-vasp.4.6
   LMAXPAW     = -100 max onsite density
   LMAXMIX     =    2 max onsite mixed and CHGCAR
   VOSKOWN=      0    Vosko Wilk Nusair interpolation
   ROPT   =    0.00000   0.00000
 Ionic relaxation
   EDIFFG = -.5E-02   stopping-criterion for IOM
   NSW    =      1    number of steps for IOM
   NBLOCK =      1;   KBLOCK =      1    inner block; outer block
   IBRION =      2    ionic relax: 0-MD 1-quasi-New 2-CG
   NFREE  =      1    steps in history (QN), initial steepest desc. (CG)
   ISIF   =      3    stress and relaxation
   IWAVPR =     11    prediction:  0-non 1-charg 2-wave 3-comb
   ISYM   =      2    0-nonsym 1-usesym 2-fastsym
   LCORR  =      T    Harris-Foulkes like correction to forces

   POTIM  = 0.5000    time-step for ionic-motion
   TEIN   =    0.0    initial temperature
   TEBEG  =    0.0;   TEEND  =   0.0 temperature during run
   SMASS  =  -3.00    Nose mass-parameter (am)
   estimated Nose-frequenzy (Omega)   =  0.10E-29 period in steps =****** mass=  -0.365E-27a.u.
   SCALEE = 1.0000    scale energy and forces
   NPACO  =    256;   APACO  = 16.0  distance and # of slots for P.C.
[...]
 k-point 10 :   0.3333 0.3333 0.0000  plane waves:    1150
 k-point 11 :   0.5000 0.3333 0.0000  plane waves:    1149
 k-point 12 :  -0.3333 0.3333 0.0000  plane waves:    1141
 k-point 13 :   0.5000 0.5000 0.0000  plane waves:    1162
 k-point 14 :   0.5000 0.3333 0.1667  plane waves:    1151
 k-point 15 :  -0.3333 0.3333 0.1667  plane waves:    1144
 k-point 16 :  -0.3333 0.5000 0.1667  plane waves:    1142
 k-point 17 :   0.0000 0.0000 0.0000  plane waves:    1139
 k-point 18 :   0.0050 0.0000 0.0050  plane waves:    1139
 k-point 19 :   0.0100 0.0000 0.0100  plane waves:    1139
 k-point 20 :   0.0150 0.0000 0.0150  plane waves:    1139
 k-point 21 :   0.0200 0.0000 0.0200  plane waves:    1139
 k-point 22 :   0.0250 0.0000 0.0250  plane waves:    1147
 k-point 23 :   0.0300 0.0000 0.0300  plane waves:    1155
 k-point 24 :   0.0350 0.0000 0.0350  plane waves:    1155
 k-point 25 :   0.0400 0.0000 0.0400  plane waves:    1163
 k-point 26 :   0.0450 0.0000 0.0450  plane waves:    1167
 k-point 27 :   0.0500 0.0000 0.0500  plane waves:    1167
 k-point 28 :   0.0550 0.0000 0.0550  plane waves:    1167
 k-point 29 :   0.0600 0.0000 0.0600  plane waves:    1163
 k-point 30 :   0.0650 0.0000 0.0650  plane waves:    1167
 k-point 31 :   0.0700 0.0000 0.0700  plane waves:    1159
 k-point 32 :   0.0750 0.0000 0.0750  plane waves:    1163
 k-point 33 :   0.0800 0.0000 0.0800  plane waves:    1163
 k-point 34 :   0.0850 0.0000 0.0850  plane waves:    1163
 k-point 35 :   0.0900 0.0000 0.0900  plane waves:    1163
 k-point 36 :   0.0950 0.0000 0.0950  plane waves:    1155
 k-point 37 :   0.1000 0.0000 0.1000  plane waves:    1155
 k-point 38 :   0.1050 0.0000 0.1050  plane waves:    1155
 k-point 39 :   0.1100 0.0000 0.1100  plane waves:    1155
 k-point 40 :   0.1150 0.0000 0.1150  plane waves:    1155
 k-point 41 :   0.1200 0.0000 0.1200  plane waves:    1155
 k-point 42 :   0.1250 0.0000 0.1250  plane waves:    1155
 k-point 43 :   0.1300 0.0000 0.1300  plane waves:    1155
 k-point 44 :   0.1350 0.0000 0.1350  plane waves:    1155
 k-point 45 :   0.1400 0.0000 0.1400  plane waves:    1155
 k-point 46 :   0.1450 0.0000 0.1450  plane waves:    1155
 k-point 47 :   0.1500 0.0000 0.1500  plane waves:    1155
 k-point 48 :   0.1550 0.0000 0.1550  plane waves:    1154
 k-point 49 :   0.1600 0.0000 0.1600  plane waves:    1154
 k-point 50 :   0.1650 0.0000 0.1650  plane waves:    1154
 k-point 51 :   0.1700 0.0000 0.1700  plane waves:    1154
 k-point 52 :   0.1750 0.0000 0.1750  plane waves:    1154
 k-point 53 :   0.1800 0.0000 0.1800  plane waves:    1154
 k-point 54 :   0.1850 0.0000 0.1850  plane waves:    1154
 k-point 55 :   0.1900 0.0000 0.1900  plane waves:    1154
 k-point 56 :   0.1950 0.0000 0.1950  plane waves:    1150
 k-point 57 :   0.2000 0.0000 0.2000  plane waves:    1146
 k-point 58 :   0.2050 0.0000 0.2050  plane waves:    1146
 k-point 59 :   0.2100 0.0000 0.2100  plane waves:    1146
 k-point 60 :   0.2150 0.0000 0.2150  plane waves:    1146
[...]
 k-point 85 :   0.3400 0.0000 0.3400  plane waves:    1142
 k-point 86 :   0.3450 0.0000 0.3450  plane waves:    1142
 k-point 87 :   0.3500 0.0000 0.3500  plane waves:    1142
 k-point 88 :   0.3550 0.0000 0.3550  plane waves:    1142
 k-point 89 :   0.3600 0.0000 0.3600  plane waves:    1150
 k-point 90 :   0.3650 0.0000 0.3650  plane waves:    1150
 k-point 91 :   0.3700 0.0000 0.3700  plane waves:    1150
 k-point 92 :   0.3750 0.0000 0.3750  plane waves:    1150
 k-point 93 :   0.3800 0.0000 0.3800  plane waves:    1150
 k-point 94 :   0.3850 0.0000 0.3850  plane waves:    1150
 k-point 95 :   0.3900 0.0000 0.3900  plane waves:    1150
 k-point 96 :   0.3950 0.0000 0.3950  plane waves:    1154
 k-point 97 :   0.4000 0.0000 0.4000  plane waves:    1154
 k-point 98 :   0.4050 0.0000 0.4050  plane waves:    1154
 k-point 99 :   0.4100 0.0000 0.4100  plane waves:    1146
 k-point ** :   0.4150 0.0000 0.4150  plane waves:    1146
 k-point ** :   0.4200 0.0000 0.4200  plane waves:    1146
 k-point ** :   0.4250 0.0000 0.4250  plane waves:    1146
 k-point ** :   0.4300 0.0000 0.4300  plane waves:    1146
 k-point ** :   0.4350 0.0000 0.4350  plane waves:    1146
 k-point ** :   0.4400 0.0000 0.4400  plane waves:    1154
 k-point ** :   0.4450 0.0000 0.4450  plane waves:    1154
 k-point ** :   0.4500 0.0000 0.4500  plane waves:    1154
 k-point ** :   0.4550 0.0000 0.4550  plane waves:    1154
 k-point ** :   0.4600 0.0000 0.4600  plane waves:    1154
 k-point ** :   0.4650 0.0000 0.4650  plane waves:    1154
 k-point ** :   0.4700 0.0000 0.4700  plane waves:    1154
 k-point ** :   0.4750 0.0000 0.4750  plane waves:    1154
 k-point ** :   0.4800 0.0000 0.4800  plane waves:    1154
 k-point ** :   0.4850 0.0000 0.4850  plane waves:    1162
 k-point ** :   0.4900 0.0000 0.4900  plane waves:    1162
 k-point ** :   0.4950 0.0000 0.4950  plane waves:    1162
 k-point ** :   0.5000 0.0000 0.5000  plane waves:    1162
 k-point ** :   0.5000 0.0064 0.5032  plane waves:    1162
 k-point ** :   0.5000 0.0128 0.5064  plane waves:    1154
 k-point ** :   0.5000 0.0192 0.5096  plane waves:    1153
 k-point ** :   0.5000 0.0256 0.5128  plane waves:    1153
 k-point ** :   0.5000 0.0321 0.5160  plane waves:    1153
 k-point ** :   0.5000 0.0385 0.5192  plane waves:    1151
 k-point ** :   0.5000 0.0449 0.5224  plane waves:    1148
 k-point ** :   0.5000 0.0513 0.5256  plane waves:    1145
 k-point ** :   0.5000 0.0577 0.5288  plane waves:    1144
 k-point ** :   0.5000 0.0641 0.5321  plane waves:    1142
 k-point ** :   0.5000 0.0705 0.5353  plane waves:    1142
 k-point ** :   0.5000 0.0769 0.5385  plane waves:    1141
 k-point ** :   0.5000 0.0833 0.5417  plane waves:    1138
 k-point ** :   0.5000 0.0897 0.5449  plane waves:    1140
 k-point ** :   0.5000 0.0962 0.5481  plane waves:    1141
 k-point ** :   0.5000 0.1026 0.5513  plane waves:    1141
 k-point ** :   0.5000 0.1090 0.5545  plane waves:    1143
 k-point ** :   0.5000 0.1154 0.5577  plane waves:    1144
 k-point ** :   0.5000 0.1218 0.5609  plane waves:    1146
 k-point ** :   0.5000 0.1282 0.5641  plane waves:    1147
 k-point ** :   0.5000 0.1346 0.5673  plane waves:    1147
 k-point ** :   0.5000 0.1410 0.5705  plane waves:    1147
 k-point ** :   0.5000 0.1474 0.5737  plane waves:    1148
 k-point ** :   0.5000 0.1538 0.5769  plane waves:    1148
 k-point ** :   0.5000 0.1603 0.5801  plane waves:    1149
 k-point ** :   0.5000 0.1667 0.5833  plane waves:    1148
 k-point ** :   0.5000 0.1731 0.5865  plane waves:    1146
 k-point ** :   0.5000 0.1795 0.5897  plane waves:    1145
 k-point ** :   0.5000 0.1859 0.5929  plane waves:    1145
 k-point ** :   0.5000 0.1923 0.5962  plane waves:    1145
 k-point ** :   0.5000 0.1987 0.5994  plane waves:    1149
 k-point ** :   0.5000 0.2051 0.6026  plane waves:    1149
 k-point ** :   0.5000 0.2115 0.6058  plane waves:    1147
 k-point ** :   0.5000 0.2179 0.6090  plane waves:    1148
 k-point ** :   0.5000 0.2244 0.6122  plane waves:    1150
 k-point ** :   0.5000 0.2308 0.6154  plane waves:    1150
 k-point ** :   0.5000 0.2372 0.6186  plane waves:    1150
 k-point ** :   0.5000 0.2436 0.6218  plane waves:    1150
 k-point ** :   0.5000 0.2500 0.6250  plane waves:    1153
 k-point ** :   0.4958 0.2542 0.6292  plane waves:    1151
 k-point ** :   0.4917 0.2583 0.6333  plane waves:    1152
 k-point ** :   0.4875 0.2625 0.6375  plane waves:    1152
[...]
 k-point ** :   0.4186 0.4186 0.6628  plane waves:    1147
 k-point ** :   0.4157 0.4157 0.6686  plane waves:    1144
 k-point ** :   0.4128 0.4128 0.6744  plane waves:    1144
 k-point ** :   0.4099 0.4099 0.6802  plane waves:    1144
 k-point ** :   0.4070 0.4070 0.6860  plane waves:    1142
 k-point ** :   0.4041 0.4041 0.6919  plane waves:    1142
 k-point ** :   0.4012 0.4012 0.6977  plane waves:    1140
 k-point ** :   0.3983 0.3983 0.7035  plane waves:    1140
 k-point ** :   0.3953 0.3953 0.7093  plane waves:    1142
 k-point ** :   0.3924 0.3924 0.7151  plane waves:    1141
 k-point ** :   0.3895 0.3895 0.7209  plane waves:    1141
 k-point ** :   0.3866 0.3866 0.7267  plane waves:    1139
 k-point ** :   0.3837 0.3837 0.7326  plane waves:    1138
 k-point ** :   0.3808 0.3808 0.7384  plane waves:    1138
 k-point ** :   0.3779 0.3779 0.7442  plane waves:    1140

 maximum and minimum number of plane-waves per node :      1174     1135

 maximum number of plane-waves:      1174
 maximum index in each direction:
   IXMAX=    7   IYMAX=    7   IZMAX=    7
   IXMIN=   -7   IYMIN=   -7   IZMIN=   -8

 NGX is ok and might be reduce to  30
 NGY is ok and might be reduce to  30
 WARNING: aliasing errors must be expected set NGZ to  32 to avoid them
 aliasing errors are usually negligible using standard VASP settings
 and one can safely disregard these warnings

 serial   3D FFT for wavefunctions
 parallel 3D FFT for charge:
    minimum data exchange during FFTs selected (reduces bandwidth)

 FFT grid for exact exchange (Hartree Fock)
  NGX = 18; NGY = 18; NGZ = 18

 Radii for the augmentation spheres in the non-local exchange
 for species   1 augmentation radius   1.392 (default was   1.031)
       energy cutoff for augmentation   2000.0
 for species   2 augmentation radius   1.434 (default was   1.062)
       energy cutoff for augmentation   2000.0

 Broyden mixing: mesh for mixing (old mesh)
   NGX = 15   NGY = 15   NGZ = 15
  (NGX  = 60   NGY  = 60   NGZ  = 60)
  gives a total of   3375 points

 initial charge density was supplied:
 charge density of overlapping atoms calculated
 number of electron      18.0000000 magnetization
 charge density for first step will be calculated from the start-wavefunctions

 Maximum index for augmentation-charges         6012 (set IRDMAX)

 First call to EWALD:  gamma=   0.498
 Maximum number of real-space cells 3x 3x 3
 Maximum number of reciprocal cells 3x 3x 3

 FEWALD executed in parallel

----------------------------------------- Iteration    1(   1)  ---------------------------------------

 eigenvalue-minimisations  : 24184
 total energy-change (2. order) : 0.7784881E+03  (-0.3478315E+04)
 number of electron      18.0000000 magnetization
 augmentation part       18.0000000 magnetization

 Free energy of the ion-electron system (eV)
  alpha Z        PSCENC =        60.29112737
  Ewald energy   TEWEN  =     -1265.50193243
  -Hartree energ DENC   =      -725.79254029
  -exchange      EXHF   =         0.00000000
  -V(xc)+E(xc)   XCENC  =        23.44814936
  PAW double counting   =      1758.35752223    -2059.93601146
  entropy T*S    EENTRO =        -0.00039260
  eigenvalues    EBANDS =       671.87786725
  atomic energy  EATOM  =      2315.74433272
  free energy    TOTEN  =       778.48812214 eV

  energy without entropy =      778.48851475  energy(sigma->0) =      778.48831845

[...]

 eigenvalue-minimisations  : 24112
 total energy-change (2. order) :-0.6581961E+03  (-0.6103873E+03)
 number of electron      18.0000000 magnetization
 augmentation part       18.0000000 magnetization

[...]

----------------------------------------- Iteration    1(  19)  ---------------------------------------

 eigenvalue-minimisations  :     0
 total energy-change (2. order) :-0.5671222E-06  (-0.2264970E-06)
 number of electron      17.9999995 magnetization
 augmentation part        7.7294555 magnetization

 Free energy of the ion-electron system (eV)
  alpha Z        PSCENC =        60.29112737
  Ewald energy   TEWEN  =     -1265.50193243
  -Hartree energ DENC   =      -723.52657543
  -exchange      EXHF   =        41.40736788
  -V(xc)+E(xc)   XCENC  =        23.64879754
  PAW double counting   =      2106.20431667    -2411.93845448
  entropy T*S    EENTRO =        -0.00000000
  eigenvalues    EBANDS =      -156.17470113
  atomic energy  EATOM  =      2315.74433272
  free energy    TOTEN  =        -9.84572128 eV

  energy without entropy =       -9.84572128  energy(sigma->0) =       -9.84572128

  average scaling for gradient   0.6951

 the core state eigenenergies are
   1-  1s    -59.4188  2s    -59.7100  2p    -59.7100  3s    -59.7100  3p    -59.7100

   2-  1s    -46.6041  2s    -46.9473  2p    -46.9473  3s    -46.9473  3p    -46.9473
       3d    -46.9473

 E-fermi :   3.5604     XC(G=0):  -7.9652     alpha+bet : -9.7375

 k-point     1 :       0.0000    0.0000    0.0000
  band No.  band energies     occupation
      1     -13.8645      2.00000
      2     -13.8645      2.00000
      3     -13.8645      2.00000
      4     -13.7843      2.00000
      5     -13.7843      2.00000
      6     -10.4575      2.00000
      7       3.5085      2.00000
      8       3.5085      2.00000
      9       3.5085      2.00000
     10       4.9229      0.00000
     11       8.0457      0.00000
     12       8.0457      0.00000
     13       8.0457      0.00000
     14      12.0841      0.00000
     15      14.6021      0.00000
     16      14.6067      0.00000

[...]

 k-point   597 :       0.3779    0.3779    0.7442
  band No.  band energies     occupation
      1     -13.9360      2.00000
      2     -13.8320      2.00000
      3     -13.8268      2.00000
      4     -13.7965      2.00000
      5     -13.7789      2.00000
      6      -7.7679      2.00000
      7      -3.6428      2.00000
      8      -0.6865      2.00000
      9       1.0871      2.00000
     10       6.1677      0.00000
     11       9.1228      0.00000
     12      12.5183      0.00000
     13      12.6150      0.00000
     14      13.1548      0.00000
     15      14.9762      0.00000
     16      19.1375      0.00000

 soft charge-density along one line, spin component           1
         0         1         2         3         4         5         6         7         8         9
 total charge-density along one line

------------------------ aborting loop because EDIFF is reached ----------------------------------------

 total charge

# of ion     s       p       d       tot
  1        0.840   0.802  10.010  11.652
  2        1.217   1.649   0.032   2.898
tot        2.057   2.451  10.042  14.550

  FORCE on cell =-STRESS in cart. coord.  units (eV):
  Direction    XX          YY          ZZ          XY          YZ          ZX
  Alpha Z    60.29113    60.29113    60.29113
  Ewald    -421.83412  -421.83412  -421.83412    -0.00000    -0.00000    -0.00000
  Hartree   241.17621   241.17621   241.17621     0.00000    -0.00000    -0.00000
  E(xc)     -74.01919   -74.01919   -74.01919     0.00001    -0.00001    -0.00001
  Local     -60.29740   -60.29740   -60.29740     0.00011    -0.00011    -0.00011
  n-local   153.61071   157.37295   156.81847    -0.81181    -1.63133    -0.52023
  augment   108.13454   108.13454   108.13454    -0.00010     0.00010     0.00010
  Kinetic   106.75708   111.08708   111.90769    -1.59986    -3.94471    -1.30186
  Fock            NaN         NaN         NaN         NaN         NaN         NaN
  Total           NaN         NaN         NaN         NaN         NaN         NaN
  in kB           NaN         NaN         NaN         NaN         NaN         NaN

 VOLUME and BASIS-vectors are now :
  energy-cutoff  :      500.00
  volume of cell :       45.18
      direct lattice vectors                 reciprocal lattice vectors
     2.826800000  2.826800000  0.000000000     0.176878449  0.176878449  0.176878449
     2.826800000  0.000000000 -2.826800000     0.176878449 -0.176878449 -0.176878449
     0.000000000  2.826800000 -2.826800000    -0.176878449  0.176878449 -0.176878449

  length of vectors
     3.997698898  3.997698898  3.997698898     0.306362461  0.306362461  0.306362461

 FORCES acting on ions:
    Electron-Ion                     Ewald-Force                    Non-Local-Force
   0.302E-06 0.321E-06 -.321E-06   -.329E-13 -.611E-14 0.232E-13   0.194E-15 0.153E-15 -.180E-15
   -.256E-06 -.384E-06 0.384E-06   0.333E-13 0.317E-14 -.230E-13   -.139E-16 -.208E-16 -.139E-16
   0.385E-06 0.270E-06 -.270E-06   0.399E-15 -.294E-14 0.210E-15   0.180E-15 0.132E-15 -.194E-15

 POSITION                                       TOTAL-FORCE (eV/Angst)
      0.00000      0.00000      0.00000              NaN           NaN           NaN
      1.41340      1.41340     -1.41340              NaN           NaN           NaN
    total drift:                                     NaN           NaN           NaN

  FREE ENERGIE OF THE ION-ELECTRON SYSTEM (eV)
  free  energy   TOTEN  =        -9.84572128 eV

  energy  without entropy=       -9.84572128  energy(sigma->0) =       -9.84572128

 reached required accuracy - stopping structural energy minimisation
 writing wavefunctions

 total charge

# of ion     s       p       d       tot
  1        0.840   0.802  10.010  11.652
  2        1.217   1.649   0.032   2.898
tot        2.057   2.451  10.042  14.550