 vasp.5.3.5 31Mar14 (build Apr 15 2015 10:45:18) complex

 executed on             LinuxIFC date 2016.02.25  13:33:14

 INCAR:
 POTCAR:    PAW_PBE Cu_pv 06Sep2000
 POTCAR:    PAW_PBE Zn 06Sep2000
 POTCAR:    PAW_PBE Sn_d 06Sep2000
 POTCAR:    PAW_PBE S 06Sep2000

 POTCAR:    PAW_PBE Cu_pv 06Sep2000
   VRHFIN =Cu: d10 p1

   TITEL  = PAW_PBE Cu_pv 06Sep2000
   POMASS =   63.546; ZVAL   =   17.000    mass and valenz
   ENMAX  =  368.648; ENMIN  =  276.486 eV

 POTCAR:    PAW_PBE Zn 06Sep2000
   VRHFIN =Zn: d10 p2

   TITEL  = PAW_PBE Zn 06Sep2000
   POMASS =   65.390; ZVAL   =   12.000    mass and valenz
   ENMAX  =  276.723; ENMIN  =  207.542 eV

 POTCAR:    PAW_PBE Sn_d 06Sep2000
   VRHFIN =Sn: s2p2

   TITEL  = PAW_PBE Sn_d 06Sep2000
   POMASS =  118.710; ZVAL   =   14.000    mass and valenz
   ENMAX  =  241.083; ENMIN  =  180.812 eV

 POTCAR:    PAW_PBE S 06Sep2000
   VRHFIN =S : s2p4

   TITEL  = PAW_PBE S 06Sep2000
   POMASS =   32.066; ZVAL   =    6.000    mass and valenz
   ENMAX  =  258.689; ENMIN  =  194.016 eV

  PAW_PBE Cu_pv 06Sep2000               :
  PAW_PBE Zn 06Sep2000                  :
  PAW_PBE Sn_d 06Sep2000                :
  PAW_PBE S 06Sep2000                   :

 POSCAR: Cu2ZnSnS4 (LaFond 2014, 293 K)
  positions in direct lattice
  velocities in cartesian coordinates
 exchange correlation table for  LEXCH =        8
   RHO(1)=    0.500       N(1)  =     2000
   RHO(2)=  100.500       N(2)  =     4000

 ion  position               nearest neighbor table
   1  0.000  0.000  0.000-   5 2.32   6 2.32   7 2.32   8 2.32
   2  0.750  0.250  0.500-   8 2.32   6 2.32   7 2.32   5 2.32
   3  0.500  0.500  0.000-   8 2.35   6 2.35   7 2.35   5 2.35
   4  0.250  0.750  0.500-   8 2.42   6 2.42   7 2.42   5 2.42
   5  0.118  0.134  0.244-   1 2.32   2 2.32   3 2.35   4 2.42
   6  0.639  0.623  0.244-   1 2.32   2 2.32   3 2.35   4 2.42
   7  0.866  0.361  0.756-   1 2.32   2 2.32   3 2.35   4 2.42
   8  0.377  0.882  0.756-   1 2.32   2 2.32   3 2.35   4 2.42

  LATTYP: Found a body centered tetragonal cell.
 ALAT       =     5.4353000000
 C/A-ratio  =     1.9955400000

  Lattice vectors:

 A1 = (   2.7176500000,  -2.7176500000,   5.4231792810)
 A2 = (  -2.7176500000,   2.7176500000,   5.4231792810)
 A3 = (  -2.7176500000,  -2.7176500000,  -5.4231792810)

Analysis of symmetry for initial positions (statically):
 Subroutine PRICEL returns:
 Original cell was already a primitive cell.

 Routine SETGRP: Setting up the symmetry group for a
 body centered tetragonal supercell.

 Subroutine GETGRP returns: Found  4 space group operations
 (whereof  4 operations were pure point group operations)
 out of a pool of 16 trial point group operations.

The static configuration has the point symmetry S_4 .

Analysis of symmetry for dynamics (positions and initial velocities):
 Subroutine PRICEL returns:
 Original cell was already a primitive cell.

 Routine SETGRP: Setting up the symmetry group for a
 body centered tetragonal supercell.

 Subroutine GETGRP returns: Found  4 space group operations
 (whereof  4 operations were pure point group operations)
 out of a pool of 16 trial point group operations.

The dynamic configuration has the point symmetry S_4 .

 KPOINTS: Automatically generated mesh (51 to igno
  k-points in reciprocal lattice
Space group operators:
 irot       det(A)        alpha          n_x          n_y          n_z        tau_x        tau_y        tau_z
    1     1.000000     0.000000     1.000000     0.000000     0.000000     0.000000     0.000000     0.000000
    2    -1.000000    90.000000     0.000000     0.000000    -1.000000     0.000000     0.000000     0.000000
    3     1.000000   180.000000     0.000000     0.000000     1.000000     0.000000     0.000000     0.000000
    4    -1.000000    90.000000     0.000000     0.000000     1.000000     0.000000     0.000000     0.000000

 Subroutine IBZKPT_HF returns following result:

 Found    407 k-points in 1st BZ
 the following    407 k-points will be used (e.g. in the exchange kernel)
 Following reciprocal coordinates:   # in IRBZ
  0.000000  0.000000  0.000000       1 t-inv F
  0.166667  0.000000  0.000000       2 t-inv F
  0.333333  0.000000  0.000000       3 t-inv F
  0.500000  0.000000  0.000000       4 t-inv F
  0.166667  0.166667  0.000000       5 t-inv F
  0.333333  0.166667  0.000000       6 t-inv F
  0.500000  0.166667  0.000000       7 t-inv F
 -0.333333  0.166667  0.000000       8 t-inv F
 -0.166667  0.166667  0.000000       9 t-inv F
  0.166667  0.333333  0.000000      10 t-inv F
  0.333333  0.333333  0.000000      11 t-inv F
  0.500000  0.333333  0.000000      12 t-inv F
 -0.333333  0.333333  0.000000      13 t-inv F
 -0.166667  0.333333  0.000000      14 t-inv F
  0.166667  0.500000  0.000000      15 t-inv F
  0.333333  0.500000  0.000000      16 t-inv F
  0.500000  0.500000  0.000000      17 t-inv F
  0.000000  0.000000  0.250000      18 t-inv F
  0.166667  0.000000  0.250000      19 t-inv F
  0.333333  0.000000  0.250000      20 t-inv F
  0.500000  0.000000  0.250000      21 t-inv F
 -0.333333  0.000000  0.250000      22 t-inv F
 -0.166667  0.000000  0.250000      23 t-inv F
  0.166667  0.166667  0.250000      24 t-inv F
  0.333333  0.166667  0.250000      25 t-inv F
  0.500000  0.166667  0.250000      26 t-inv F
 -0.333333  0.166667  0.250000      27 t-inv F
 -0.166667  0.166667  0.250000      28 t-inv F
  0.166667  0.333333  0.250000      29 t-inv F
  0.333333  0.333333  0.250000      30 t-inv F
  0.500000  0.333333  0.250000      31 t-inv F
 -0.333333  0.333333  0.250000      32 t-inv F
 -0.166667  0.333333  0.250000      33 t-inv F
  0.166667  0.500000  0.250000      34 t-inv F
  0.333333  0.500000  0.250000      35 t-inv F
  0.500000  0.500000  0.250000      36 t-inv F
  0.166667 -0.333333  0.250000      37 t-inv F
 -0.333333 -0.333333  0.250000      38 t-inv F
 -0.166667 -0.333333  0.250000      39 t-inv F
  0.333333 -0.166667  0.250000      40 t-inv F
 -0.333333 -0.166667  0.250000      41 t-inv F
 -0.166667 -0.166667  0.250000      42 t-inv F
  0.000000  0.000000  0.500000      43 t-inv F
  0.166667  0.000000  0.500000      44 t-inv F
  0.333333  0.000000  0.500000      45 t-inv F
  0.166667  0.166667  0.500000      46 t-inv F
 -0.333333  0.166667  0.500000      47 t-inv F
 -0.166667  0.166667  0.500000      48 t-inv F
  0.333333  0.333333  0.500000      49 t-inv F
 -0.333333  0.333333  0.500000      50 t-inv F
 -0.166667  0.333333  0.500000      51 t-inv F
  0.000000  0.050000  0.000000      52 t-inv F
  0.000000  0.100000  0.000000      53 t-inv F
  0.000000  0.150000  0.000000      54 t-inv F
  0.000000  0.200000  0.000000      55 t-inv F
  0.000000  0.250000  0.000000      56 t-inv F
  0.000000  0.300000  0.000000      57 t-inv F
  0.000000  0.350000  0.000000      58 t-inv F
  0.000000  0.400000  0.000000      59 t-inv F
  0.000000  0.450000  0.000000      60 t-inv F
[...]
 -0.166667  0.166667  0.333333      46 t-inv T
  0.166667  0.166667 -0.166667      46 t-inv T
  0.166667 -0.166667  0.333333      46 t-inv T
  0.333333 -0.166667 -0.500000      47 t-inv T
 -0.166667 -0.333333  0.333333      47 t-inv T
 -0.333333  0.166667 -0.666667      47 t-inv T
  0.166667  0.333333  0.833333      47 t-inv T
 -0.333333 -0.333333 -0.500000      49 t-inv T
 -0.333333  0.333333  0.166667      49 t-inv T
  0.333333  0.333333  0.166667      49 t-inv T
  0.333333 -0.333333  0.166667      49 t-inv T
  0.166667 -0.333333 -0.500000      51 t-inv T
 -0.333333 -0.166667  0.166667      51 t-inv T
 -0.166667  0.333333 -0.333333      51 t-inv T
  0.333333  0.166667  0.666667      51 t-inv T

 I would recommend the setting:
   dimension x,y,z NGX =    40 NGY =   40 NGZ =   48
 SYSTEM =  Name
 POSCAR =  Cu2ZnSnS4 (LaFond 2014, 293 K)

 Startparameter for this run:
   NWRITE =      2    write-flag & timer
   PREC   = accura    normal or accurate (medium, high low for compatibility)
   ISTART =      0    job   : 0-new  1-cont  2-samecut
   ICHARG =      2    charge: 1-file 2-atom 10-const
   ISPIN  =      1    spin polarized calculation?
   LNONCOLLINEAR =      F non collinear calculations
   LSORBIT =      F    spin-orbit coupling
   INIWAV =      1    electr: 0-lowe 1-rand  2-diag
   LASPH  =      F    aspherical Exc in radial PAW
   METAGGA=      F    non-selfconsistent MetaGGA calc.

 Electronic Relaxation 1
   ENCUT  =  500.0 eV  36.75 Ry    6.06 a.u.   9.91  9.91 12.12*2*pi/ulx,y,z
   ENINI  =  500.0     initial cutoff
   ENAUG  =  758.2 eV  augmentation charge cutoff
   NELM   =     60;   NELMIN=  2; NELMDL=  0     # of ELM steps
   EDIFF  = 0.1E-05   stopping-criterion for ELM
   LREAL  =      F    real-space projection
   NLSPLINE    = F    spline interpolate recip. space projectors
   LCOMPAT=      F    compatible to vasp.4.4
   GGA_COMPAT  = T    GGA compatible to vasp.4.4-vasp.4.6
   LMAXPAW     = -100 max onsite density
   LMAXMIX     =    2 max onsite mixed and CHGCAR
   VOSKOWN=      0    Vosko Wilk Nusair interpolation
   ROPT   =    0.00000   0.00000   0.00000   0.00000
 Ionic relaxation
   EDIFFG = -.5E-02   stopping-criterion for IOM
   NSW    =      1    number of steps for IOM
   NBLOCK =      1;   KBLOCK =      1    inner block; outer block
   IBRION =      2    ionic relax: 0-MD 1-quasi-New 2-CG
   NFREE  =      1    steps in history (QN), initial steepest desc. (CG)
   ISIF   =      3    stress and relaxation
   IWAVPR =     11    prediction:  0-non 1-charg 2-wave 3-comb
   ISYM   =      2    0-nonsym 1-usesym 2-fastsym
   LCORR  =      T    Harris-Foulkes like correction to forces

   POTIM  = 0.5000    time-step for ionic-motion
   TEIN   =    0.0    initial temperature
   TEBEG  =    0.0;   TEEND  =   0.0 temperature during run
   SMASS  =  -3.00    Nose mass-parameter (am)
   estimated Nose-frequenzy (Omega)   =  0.10E-29 period in steps =****** mass=  -0.675E-27a.u.
   SCALEE = 1.0000    scale energy and forces
   NPACO  =    256;   APACO  = 16.0  distance and # of slots for P.C.
   PSTRESS=    0.0 pullay stress

  Mass of Ions in am
   POMASS =  63.55 65.39118.71 32.07
  Ionic Valenz
   ZVAL   =  17.00 12.00 14.00  6.00
  Atomic Wigner-Seitz radii
  virtual crystal weights
   VCA    =   1.00  1.00  1.00  1.00
   NELECT =      84.0000    total number of electrons
   NUPDOWN=      -1.0000    fix difference up-down

 DOS related values:
   EMIN   =  10.00;   EMAX   =-10.00  energy-range for DOS
   EFERMI =   0.00
   ISMEAR =     0;   SIGMA  =   0.01  broadening in eV -4-tet -1-fermi 0-gaus

 Electronic relaxation 2 (details)
   IALGO  =     58    algorithm
   LDIAG  =      T    sub-space diagonalisation (order eigenvalues)
   LSUBROT=      F    optimize rotation matrix (better conditioning)
   TURBO    =      0    0=normal 1=particle mesh
   IRESTART =      0    0=no restart 2=restart with 2 vectors
   NREBOOT  =      0    no. of reboots
   NMIN     =      0    reboot dimension
   EREF     =   0.00    reference energy to select bands
   IMIX   =      4    mixing-type and parameters
     AMIX     =   0.40;   BMIX     =  1.00
     AMIX_MAG =   1.60;   BMIX_MAG =  1.00
     AMIN     =   0.01
     WC   =   100.;   INIMIX=   1;  MIXPRE=   1;  MAXMIX= -45

 Intra band minimization:
[...]
 k-point 44 :   0.1667 0.0000 0.5000  plane waves:    4060
 k-point 45 :   0.3333 0.0000 0.5000  plane waves:    4074
 k-point 46 :   0.1667 0.1667 0.5000  plane waves:    4069
 k-point 47 :  -0.3333 0.1667 0.5000  plane waves:    4077
 k-point 48 :  -0.1667 0.1667 0.5000  plane waves:    4058
 k-point 49 :   0.3333 0.3333 0.5000  plane waves:    4050
 k-point 50 :  -0.3333 0.3333 0.5000  plane waves:    4094
 k-point 51 :  -0.1667 0.3333 0.5000  plane waves:    4077
 k-point 52 :   0.0000 0.0500 0.0000  plane waves:    4049
 k-point 53 :   0.0000 0.1000 0.0000  plane waves:    4050
 k-point 54 :   0.0000 0.1500 0.0000  plane waves:    4048
 k-point 55 :   0.0000 0.2000 0.0000  plane waves:    4060
 k-point 56 :   0.0000 0.2500 0.0000  plane waves:    4062
 k-point 57 :   0.0000 0.3000 0.0000  plane waves:    4073
 k-point 58 :   0.0000 0.3500 0.0000  plane waves:    4078
 k-point 59 :   0.0000 0.4000 0.0000  plane waves:    4082
 k-point 60 :   0.0000 0.4500 0.0000  plane waves:    4075
[...]
 k-point 85 :   0.0000 0.0000 0.1250  plane waves:    4052
 k-point 86 :   0.0000 0.0000 0.1875  plane waves:    4052
 k-point 87 :   0.0000 0.0000 0.2500  plane waves:    4056
 k-point 88 :   0.0000 0.0000 0.3125  plane waves:    4048
 k-point 89 :   0.0000 0.0000 0.3750  plane waves:    4036
 k-point 90 :   0.0000 0.0000 0.4375  plane waves:    4060
 k-point 91 :   0.0000 0.0000 0.5000  plane waves:    4040
 k-point 92 :   0.0000 0.1000 0.5000  plane waves:    4034
 k-point 93 :   0.0000 0.1500 0.5000  plane waves:    4052
 k-point 94 :   0.0000 0.2000 0.5000  plane waves:    4076
 k-point 95 :   0.0000 0.2500 0.5000  plane waves:    4079
 k-point 96 :   0.0000 0.3000 0.5000  plane waves:    4058
 k-point 97 :   0.0000 0.3500 0.5000  plane waves:    4071
 k-point 98 :   0.0000 0.4000 0.5000  plane waves:    4085
 k-point 99 :   0.0000 0.4500 0.5000  plane waves:    4077
 k-point ** :   0.0000 0.5000 0.5000  plane waves:    4072
 k-point ** :   0.1000 0.5000 0.5000  plane waves:    4066
 k-point ** :   0.1500 0.5000 0.5000  plane waves:    4074
 k-point ** :   0.2000 0.5000 0.5000  plane waves:    4071
 k-point ** :   0.2500 0.5000 0.5000  plane waves:    4073
 k-point ** :   0.3000 0.5000 0.5000  plane waves:    4071
 k-point ** :   0.3500 0.5000 0.5000  plane waves:    4074
 k-point ** :   0.4000 0.5000 0.5000  plane waves:    4070
 k-point ** :   0.4500 0.5000 0.5000  plane waves:    4070
 k-point ** :   0.5000 0.5000 0.5000  plane waves:    4054
 k-point ** :   0.4286 0.4286 0.5000  plane waves:    4062
 k-point ** :   0.3929 0.3929 0.5000  plane waves:    4054
 k-point ** :   0.3571 0.3571 0.5000  plane waves:    4060
 k-point ** :   0.3214 0.3214 0.5000  plane waves:    4056
 k-point ** :   0.2857 0.2857 0.5000  plane waves:    4051
 k-point ** :   0.2500 0.2500 0.5000  plane waves:    4051
 k-point ** :   0.2143 0.2143 0.5000  plane waves:    4069
 k-point ** :   0.1786 0.1786 0.5000  plane waves:    4071
 k-point ** :   0.1429 0.1429 0.5000  plane waves:    4063
 k-point ** :   0.1071 0.1071 0.5000  plane waves:    4058
 k-point ** :   0.0714 0.0714 0.5000  plane waves:    4047
 k-point ** :   0.0357 0.0357 0.5000  plane waves:    4043
 k-point ** :   0.0000 0.0000 0.5000  plane waves:    4040

 maximum and minimum number of plane-waves per node :      1048      986

 maximum number of plane-waves:      4094
 maximum index in each direction:
   IXMAX=   10   IYMAX=   10   IZMAX=   12
   IXMIN=  -10   IYMIN=  -10   IZMIN=  -12

 WARNING: aliasing errors must be expected set NGX to  42 to avoid them
 WARNING: aliasing errors must be expected set NGY to  42 to avoid them
 WARNING: aliasing errors must be expected set NGZ to  50 to avoid them
 aliasing errors are usually negligible using standard VASP settings
 and one can safely disregard these warnings

 parallel 3D FFT for wavefunctions:
    minimum data exchange during FFTs selected (reduces bandwidth)
 parallel 3D FFT for charge:
    minimum data exchange during FFTs selected (reduces bandwidth)

 FFT grid for exact exchange (Hartree Fock)
  NGX = 24; NGY = 24; NGZ = 28

 Radii for the augmentation spheres in the non-local exchange
 for species   1 augmentation radius   1.120 (default was   0.830)
       energy cutoff for augmentation   2000.0
 for species   2 augmentation radius   1.285 (default was   0.952)
       energy cutoff for augmentation   2000.0
 for species   3 augmentation radius   1.471 (default was   1.089)
       energy cutoff for augmentation   2000.0
 for species   4 augmentation radius   1.309 (default was   0.970)
       energy cutoff for augmentation   2000.0

 real space projection operators:
  max/ min on nodes  :        237.07        230.05

 Broyden mixing: mesh for mixing (old mesh)
   NGX = 19   NGY = 19   NGZ = 25
  (NGX  = 80   NGY  = 80   NGZ  = 96)
  gives a total of   9025 points

 initial charge density was supplied:
 charge density of overlapping atoms calculated
 number of electron      84.0000000 magnetization
 charge density for first step will be calculated from the start-wavefunctions

 Maximum index for augmentation-charges         1303 (set IRDMAX)

 First call to EWALD:  gamma=   0.326
 Maximum number of real-space cells 3x 3x 3
 Maximum number of reciprocal cells 3x 3x 3

 FEWALD executed in parallel

----------------------------------------- Iteration    1(   1)  ---------------------------------------

 eigenvalue-minimisations  : 17648
 total energy-change (2. order) : 0.4855915E+04  (-0.1591286E+05)
 number of electron      84.0000000 magnetization
 augmentation part       84.0000000 magnetization

 Free energy of the ion-electron system (eV)
  alpha Z        PSCENC =       275.46753454
  Ewald energy   TEWEN  =     -7155.92568703
  -Hartree energ DENC   =     -5111.05795514
  -exchange      EXHF   =         0.00000000
  -V(xc)+E(xc)   XCENC  =       287.92794054
  PAW double counting   =     10942.69525278   -11381.18114668
  entropy T*S    EENTRO =        -0.00012809
  eigenvalues    EBANDS =      4022.67781285
  atomic energy  EATOM  =     12975.31123126
  free energy    TOTEN  =      4855.91485504 eV

  energy without entropy =     4855.91498313  energy(sigma->0) =     4855.91491909

[...]

 eigenvalue-minimisations  : 14184
 total energy-change (2. order) :-0.3529224E+04  (-0.3452783E+04)
 number of electron      84.0000000 magnetization
 augmentation part       84.0000000 magnetization

[...]

 eigenvalue-minimisations  :     0
 total energy-change (2. order) :-0.5602487E-09  (-0.1135262E-05)
 number of electron      83.9999897 magnetization
 augmentation part       34.2872621 magnetization

[...]

----------------------------------------- Iteration    1(  25)  ---------------------------------------

 eigenvalue-minimisations  :     0
 total energy-change (2. order) : 0.1330009E-06  (-0.8393062E-06)
 number of electron      83.9999897 magnetization
 augmentation part       34.2872625 magnetization

 Free energy of the ion-electron system (eV)
  alpha Z        PSCENC =       275.46753454
  Ewald energy   TEWEN  =     -7155.92568703
  -Hartree energ DENC   =     -5091.54589370
  -exchange      EXHF   =       242.05938088
  -V(xc)+E(xc)   XCENC  =       288.38495869
  PAW double counting   =     13958.50569068   -14406.27848169
  entropy T*S    EENTRO =        -0.00000000
  eigenvalues    EBANDS =     -1124.56506504
  atomic energy  EATOM  =     12975.31123126
  free energy    TOTEN  =       -38.58633141 eV

  energy without entropy =      -38.58633141  energy(sigma->0) =      -38.58633141

  average scaling for gradient   0.6809

 the core state eigenenergies are
   1-  1s    -70.4235  2s    -70.6558  2p    -70.6558  3s    -70.6558
   2-  1s    -70.4260  2s    -70.6547  2p    -70.6547  3s    -70.6547
   3-  1s    -27.1780  2s    -27.3049  2p    -27.3049  3s    -27.3049  3p    -27.3049

   4-  1s    -97.2255  2s    -97.2870  2p    -97.2870  3s    -97.2870  3p    -97.2870
       3d    -97.2870  4s    -97.2870  4p    -97.2870
   5-  1s    -83.6933  2s    -83.8758  2p    -83.8758
   6-  1s    -83.6933  2s    -83.8758  2p    -83.8758
   7-  1s    -83.6933  2s    -83.8758  2p    -83.8758
   8-  1s    -83.6933  2s    -83.8758  2p    -83.8758

 E-fermi :   4.3105     XC(G=0):  -8.1358     alpha+bet : -9.9404

 k-point     1 :       0.0000    0.0000    0.0000
  band No.  band energies     occupation
      1     -68.5132      2.00000
      2     -68.4799      2.00000
      3     -68.4796      2.00000
      4     -68.4579      2.00000
      5     -68.4584      2.00000
      6     -68.4599      2.00000
      7     -20.1592      2.00000
      8     -20.1553      2.00000
      9     -20.1553      2.00000
     10     -20.0617      2.00000
     11     -20.0562      2.00000
     12     -11.7212      2.00000
     13     -10.0768      2.00000
     14     -10.0664      2.00000
     15     -10.0664      2.00000
     16      -4.7024      2.00000
     17      -4.6425      2.00000
     18      -4.5971      2.00000
     19      -4.5971      2.00000
     20      -4.5897      2.00000
     21      -4.2520      2.00000
     22      -1.8603      2.00000
     23      -1.2303      2.00000
     24      -1.1809      2.00000
     25      -0.7448      2.00000
     26      -0.6155      2.00000
     27      -0.6155      2.00000
     28      -0.0019      2.00000
     29      -0.0017      2.00000
     30       0.3454      2.00000
     31       0.3800      2.00000
     32       0.3800      2.00000
     33       1.4103      2.00000
     34       1.4747      2.00000
     35       1.6275      2.00000
     36       1.9551      2.00000
     37       2.0153      2.00000
     38       2.0152      2.00000
     39       2.1734      2.00000
     40       3.9137      2.00000
     41       3.9138      2.00000
     42       3.9726      2.00000
     43       5.3737      0.00000
     44       6.9989      0.00000
     45       8.0447      0.00000
     46       8.9312      0.00000
     47       8.9364      0.00000
     48      10.2942      0.00000
     49      10.4683      0.00000
     50      10.6233      0.00000
     51      11.3087      0.00000
     52      11.7953      0.00000

[...]

 k-point   122 :       0.0000    0.0000    0.5000
  band No.  band energies     occupation
      1     -68.5132      2.00000
      2     -68.4798      2.00000
      3     -68.4798      2.00000
      4     -68.4605      2.00000
      5     -68.4576      2.00000
      6     -68.4576      2.00000
      7     -20.1594      2.00000
      8     -20.1550      2.00000
      9     -20.1550      2.00000
     10     -20.0617      2.00000
     11     -20.0562      2.00000
     12     -11.2074      2.00000
     13     -10.7871      2.00000
     14     -10.0813      2.00000
     15     -10.0813      2.00000
     16      -5.0461      2.00000
     17      -4.6318      2.00000
     18      -4.6276      2.00000
     19      -4.6276      2.00000
     20      -4.5536      2.00000
     21      -3.7687      2.00000
     22      -2.2307      2.00000
     23      -0.8254      2.00000
     24      -0.8114      2.00000
     25      -0.3904      2.00000
     26      -0.3697      2.00000
     27      -0.3697      2.00000
     28      -0.0151      2.00000
     29      -0.0151      2.00000
     30       0.4695      2.00000
     31       0.5137      2.00000
     32       0.5137      2.00000
     33       1.3610      2.00000
     34       1.5518      2.00000
     35       1.6390      2.00000
     36       1.6738      2.00000
     37       2.5019      2.00000
     38       2.6312      2.00000
     39       2.6811      2.00000
     40       2.6810      2.00000
     41       2.9555      2.00000
     42       2.9555      2.00000
     43       6.4696      0.00000
     44       7.0411      0.00000
     45       7.0412      0.00000
     46       7.5011      0.00000
     47       8.4611      0.00000
     48       8.6319      0.00000
     49       9.5431      0.00000
     50       9.6139      0.00000
     51      12.2475      0.00000
     52      12.4340      0.00000

 soft charge-density along one line, spin component           1
         0         1         2         3         4         5         6         7         8         9
 total charge-density along one line

------------------------ aborting loop because EDIFF is reached ----------------------------------------

 total charge

# of ion     s       p       d       tot
  1        0.208   6.163   9.067  15.438
  2        0.206   6.161   9.068  15.435
  3        0.490   0.461   9.836  10.787
  4        1.084   1.141  10.121  12.346
  5        1.319   2.413   0.000   3.732
  6        1.319   2.413   0.000   3.732
  7        1.319   2.413   0.000   3.732
  8        1.319   2.412   0.000   3.731
tot        7.264  23.577  38.091  68.932

  FORCE on cell =-STRESS in cart. coord.  units (eV):
  Direction    XX          YY          ZZ          XY          YZ          ZX
  Alpha Z   275.46753   275.46753   275.46753
  Ewald   -2394.86127 -2394.86127 -2366.21278     0.00000     0.00000     0.00000
  Hartree  1686.80642  1686.80642  1717.92932     0.00000     0.00017     0.00015
  E(xc)    -375.94780  -375.94779  -375.94978    -0.00004     0.00001     0.00001
  Local    -634.08687  -634.08687  -694.16816     0.00036     0.00053     0.00056
  n-local   659.48534   659.61714   659.82097     0.01932    -0.00658     0.14028
  augment   455.51795   455.51793   455.12122    -0.00029    -0.00253    -0.00252
  Kinetic   910.01809   911.94833   911.15284    -0.04141    -0.15971    -0.31526
  Fock            NaN         NaN         NaN         NaN         NaN         NaN
  Total           NaN         NaN         NaN         NaN         NaN         NaN
  in kB           NaN         NaN         NaN         NaN         NaN         NaN

 VOLUME and BASIS-vectors are now :
  energy-cutoff  :      500.00
  volume of cell :      160.21
      direct lattice vectors                 reciprocal lattice vectors
     5.435300000  0.000000000  0.000000000     0.183982485  0.000000000 -0.092196841
     0.000000000  5.435300000  0.000000000     0.000000000  0.183982485 -0.092196841
     2.717650000  2.717650000  5.423179281     0.000000000  0.000000000  0.184393683

  length of vectors
     5.435300000  5.435300000  6.646962958     0.205790700  0.205790700  0.184393683

 FORCES acting on ions:
    Electron-Ion                     Ewald-Force                    Non-Local-Force
   -.404E-05 -.853E-06 -.480E-06   0.790E-11 -.246E-11 -.851E-11   0.108E-18 0.976E-18 0.000E+00
   -.636E-07 0.264E-05 0.502E-06   -.763E-11 -.242E-11 0.874E-11   0.000E+00 -.434E-18 0.000E+00
   0.290E-05 -.200E-05 0.520E-06   0.543E-11 -.263E-11 0.605E-11   0.000E+00 0.108E-18 0.000E+00
   0.249E-05 -.194E-05 -.437E-06   -.550E-11 -.257E-11 -.620E-11   0.325E-17 -.716E-17 0.000E+00
   -.636E+02 -.715E+01 0.576E+01   0.613E+02 0.840E+01 -.704E+01   0.217E+01 -.120E+01 0.122E+01
   0.636E+02 0.715E+01 0.576E+01   -.613E+02 -.840E+01 -.704E+01   -.217E+01 0.120E+01 0.122E+01
   0.715E+01 -.636E+02 -.576E+01   -.840E+01 0.613E+02 0.704E+01   0.120E+01 0.217E+01 -.122E+01
   -.715E+01 0.636E+02 -.576E+01   0.840E+01 -.613E+02 0.704E+01   -.120E+01 -.217E+01 -.122E+01
   -.998E-05 -.499E-05 0.271E-04   0.178E-14 -.711E-14 -.133E-13   0.222E-15 0.000E+00 -.444E-15

 POSITION                                       TOTAL-FORCE (eV/Angst)
      0.00000      0.00000      0.00000              NaN           NaN           NaN
      5.43530      2.71765      2.71159              NaN           NaN           NaN
      2.71765      2.71765      0.00000              NaN           NaN           NaN
      2.71765      5.43530      2.71159              NaN           NaN           NaN
      1.30213      1.38979      1.32105              NaN           NaN           NaN
      4.13317      4.04551      1.32105              NaN           NaN           NaN
      6.76316      4.01978      4.10213              NaN           NaN           NaN
      4.10744      6.85082      4.10213              NaN           NaN           NaN
    total drift:                                     NaN           NaN           NaN

  FREE ENERGIE OF THE ION-ELECTRON SYSTEM (eV)
  free  energy   TOTEN  =       -38.58633141 eV

  energy  without entropy=      -38.58633141  energy(sigma->0) =      -38.58633141

 reached required accuracy - stopping structural energy minimisation
 writing wavefunctions

 total charge

# of ion     s       p       d       tot
  1        0.208   6.163   9.067  15.438
  2        0.206   6.161   9.068  15.435
  3        0.490   0.461   9.836  10.787
  4        1.084   1.141  10.121  12.346
  5        1.319   2.413   0.000   3.732
  6        1.319   2.413   0.000   3.732
  7        1.319   2.413   0.000   3.732
  8        1.319   2.412   0.000   3.731
tot        7.264  23.577  38.091  68.932