 vasp.5.3.5 31Mar14 (build Apr 15 2015 10:45:18) complex

 executed on             LinuxIFC date 2016.02.17  10:20:45

 INCAR:
 POTCAR:    PAW_PBE Cu_pv 06Sep2000
 POTCAR:    PAW_PBE Zn 06Sep2000
 POTCAR:    PAW_PBE Sn_d 06Sep2000
 POTCAR:    PAW_PBE S 06Sep2000

 POTCAR:    PAW_PBE Cu_pv 06Sep2000
   VRHFIN =Cu: d10 p1

   TITEL  = PAW_PBE Cu_pv 06Sep2000
   POMASS =   63.546; ZVAL   =   17.000    mass and valenz
   ENMAX  =  368.648; ENMIN  =  276.486 eV

 POTCAR:    PAW_PBE Zn 06Sep2000
   VRHFIN =Zn: d10 p2

   TITEL  = PAW_PBE Zn 06Sep2000
   POMASS =   65.390; ZVAL   =   12.000    mass and valenz
   ENMAX  =  276.723; ENMIN  =  207.542 eV

 POTCAR:    PAW_PBE Sn_d 06Sep2000
   VRHFIN =Sn: s2p2

   TITEL  = PAW_PBE Sn_d 06Sep2000
   POMASS =  118.710; ZVAL   =   14.000    mass and valenz
   ENMAX  =  241.083; ENMIN  =  180.812 eV

 POTCAR:    PAW_PBE S 06Sep2000
   VRHFIN =S : s2p4

   TITEL  = PAW_PBE S 06Sep2000
   POMASS =   32.066; ZVAL   =    6.000    mass and valenz
   ENMAX  =  258.689; ENMIN  =  194.016 eV

  PAW_PBE Cu_pv 06Sep2000               :
  PAW_PBE Zn 06Sep2000                  :
  PAW_PBE Sn_d 06Sep2000                :
  PAW_PBE S 06Sep2000                   :

 POSCAR: Cu2ZnSnS4 (l.c. = a, z3 = c /2a) - HSE06
  positions in direct lattice
  velocities in cartesian coordinates
 exchange correlation table for  LEXCH =        8
   RHO(1)=    0.500       N(1)  =     2000
   RHO(2)=  100.500       N(2)  =     4000

 ion  position               nearest neighbor table
   1  0.000  0.000  0.000-   6 2.29   7 2.29   5 2.29   8 2.29
   2  0.750  0.250  0.500-   8 2.30   6 2.30   5 2.30   7 2.30
   3  0.500  0.500  0.000-   8 2.32   5 2.32   7 2.32   6 2.32
   4  0.250  0.750  0.500-   7 2.40   5 2.40   6 2.40   8 2.40
   5  0.118  0.134  0.244-   1 2.29   2 2.30   3 2.32   4 2.40
   6  0.639  0.623  0.244-   1 2.29   2 2.30   3 2.32   4 2.40
   7  0.866  0.361  0.756-   1 2.29   2 2.30   3 2.32   4 2.40
   8  0.377  0.882  0.756-   1 2.29   2 2.30   3 2.32   4 2.40

  LATTYP: Found a body centered tetragonal cell.
 ALAT       =     5.3742173666
 C/A-ratio  =     2.0007458811

  Lattice vectors:

 A1 = (   2.6871088888,  -2.6871084778,   5.3762216301)
 A2 = (  -2.6871088888,   2.6871084778,   5.3762216301)
 A3 = (  -2.6871084778,  -2.6871088888,  -5.3762216301)

Analysis of symmetry for initial positions (statically):
 Subroutine PRICEL returns:
 Original cell was already a primitive cell.

 Routine SETGRP: Setting up the symmetry group for a
 body centered tetragonal supercell.

 Subroutine GETGRP returns: Found  4 space group operations
 (whereof  4 operations were pure point group operations)
 out of a pool of 16 trial point group operations.

The static configuration has the point symmetry S_4 .

Analysis of symmetry for dynamics (positions and initial velocities):
 Subroutine PRICEL returns:
 Original cell was already a primitive cell.

 Routine SETGRP: Setting up the symmetry group for a
 body centered tetragonal supercell.

 Subroutine GETGRP returns: Found  4 space group operations
 (whereof  4 operations were pure point group operations)
 out of a pool of 16 trial point group operations.

The dynamic configuration has the point symmetry S_4 .

 KPOINTS: Automatic mesh

Automatic generation of k-mesh.
Space group operators:
 irot       det(A)        alpha          n_x          n_y          n_z        tau_x        tau_y        tau_z
    1     1.000000     0.000000     1.000000     0.000000     0.000000     0.000000     0.000000     0.000000
    2    -1.000000    90.000000     0.000000    -0.000000    -1.000000     0.000000     0.000000     0.000000
    3     1.000000   180.000000    -0.000000     0.000000     1.000000     0.000000     0.000000     0.000000
    4    -1.000000    90.000000     0.000000     0.000000     1.000000     0.000000     0.000000     0.000000

 Subroutine IBZKPT returns following result:

 Found     51 irreducible k-points:

 Following reciprocal coordinates:
            Coordinates               Weight
  0.000000  0.000000  0.000000      1.000000
  0.166667  0.000000 -0.000000      4.000000
  0.333333  0.000000 -0.000000      4.000000
  0.500000  0.000000 -0.000000      4.000000
  0.166667  0.166667  0.000000      2.000000
  0.333333  0.166667 -0.000000      4.000000
  0.500000  0.166667 -0.000000      4.000000
 -0.333333  0.166667  0.000000      2.000000
 -0.166667  0.166667 -0.000000      2.000000
  0.166667  0.333333  0.000000      4.000000
  0.333333  0.333333 -0.000000      2.000000
  0.500000  0.333333  0.000000      4.000000
 -0.333333  0.333333  0.000000      2.000000
 -0.166667  0.333333 -0.000000      2.000000
  0.166667  0.500000 -0.000000      4.000000
  0.333333  0.500000  0.000000      4.000000
  0.500000  0.500000  0.000000      2.000000
 -0.000000 -0.000000  0.250000      2.000000
  0.166667  0.000000  0.250000      4.000000
  0.333333  0.000000  0.250000      4.000000
  0.500000  0.000000  0.250000      4.000000
 -0.333333 -0.000000  0.250000      4.000000
 -0.166667 -0.000000  0.250000      4.000000
  0.166667  0.166667  0.250000      2.000000
  0.333333  0.166667  0.250000      2.000000
  0.500000  0.166667  0.250000      4.000000
 -0.333333  0.166667  0.250000      2.000000
 -0.166667  0.166667  0.250000      4.000000
  0.166667  0.333333  0.250000      2.000000
  0.333333  0.333333  0.250000      2.000000
  0.500000  0.333333  0.250000      4.000000
 -0.333333  0.333333  0.250000      4.000000
 -0.166667  0.333333  0.250000      2.000000
  0.166667  0.500000  0.250000      4.000000
  0.333333  0.500000  0.250000      4.000000
  0.500000  0.500000  0.250000      2.000000
  0.166667 -0.333333  0.250000      2.000000
 -0.333333 -0.333333  0.250000      2.000000
 -0.166667 -0.333333  0.250000      2.000000
  0.333333 -0.166667  0.250000      2.000000
 -0.333333 -0.166667  0.250000      2.000000
 -0.166667 -0.166667  0.250000      2.000000
 -0.000000 -0.000000  0.500000      1.000000
  0.166667  0.000000  0.500000      4.000000
  0.333333  0.000000  0.500000      4.000000
  0.166667  0.166667  0.500000      2.000000
 -0.333333  0.166667  0.500000      2.000000
 -0.166667  0.166667  0.500000      2.000000
  0.333333  0.333333  0.500000      2.000000
 -0.333333  0.333333  0.500000      2.000000
 -0.166667  0.333333  0.500000      2.000000

 Following cartesian coordinates:
            Coordinates               Weight
  0.000000  0.000000  0.000000      1.000000
  0.168304  0.000000 -0.084120      4.000000
  0.336607  0.000000 -0.168241      4.000000
  0.504911  0.000000 -0.252361      4.000000
  0.168304  0.168304 -0.168241      2.000000
  0.336607  0.168304 -0.252361      4.000000
  0.504911  0.168304 -0.336482      4.000000
 -0.336607  0.168304  0.084120      2.000000
 -0.168304  0.168304 -0.000000      2.000000
  0.168304  0.336607 -0.252361      4.000000
  0.336607  0.336607 -0.336482      2.000000
  0.504911  0.336607 -0.420602      4.000000
 -0.336607  0.336607 -0.000000      2.000000
 -0.168304  0.336607 -0.084120      2.000000
  0.168304  0.504911 -0.336482      4.000000
  0.336607  0.504911 -0.420602      4.000000
  0.504911  0.504911 -0.504722      2.000000
 -0.000000  0.000000  0.252361      2.000000
  0.168304  0.000000  0.168241      4.000000
  0.336607  0.000000  0.084120      4.000000
  0.504911  0.000000 -0.000000      4.000000
 -0.336607 -0.000000  0.420602      4.000000
 -0.168304 -0.000000  0.336482      4.000000
  0.168304  0.168304  0.084120      2.000000
  0.336607  0.168304 -0.000000      2.000000
  0.504911  0.168304 -0.084120      4.000000
 -0.336607  0.168304  0.336482      2.000000
 -0.168304  0.168304  0.252361      4.000000
  0.168304  0.336607 -0.000000      2.000000
  0.336607  0.336607 -0.084120      2.000000
  0.504911  0.336607 -0.168241      4.000000
 -0.336607  0.336607  0.252361      4.000000
 -0.168304  0.336607  0.168241      2.000000
  0.168304  0.504911 -0.084120      4.000000
  0.336607  0.504911 -0.168241      4.000000
  0.504911  0.504911 -0.252361      2.000000
  0.168304 -0.336607  0.336482      2.000000
 -0.336607 -0.336607  0.588843      2.000000
 -0.168304 -0.336607  0.504722      2.000000
  0.336607 -0.168304  0.168241      2.000000
 -0.336607 -0.168304  0.504722      2.000000
 -0.168304 -0.168304  0.420602      2.000000
 -0.000000  0.000000  0.504722      1.000000
  0.168304  0.000000  0.420602      4.000000
  0.336607  0.000000  0.336482      4.000000
  0.168304  0.168304  0.336482      2.000000
 -0.336607  0.168304  0.588843      2.000000
 -0.168304  0.168304  0.504722      2.000000
  0.336607  0.336607  0.168241      2.000000
 -0.336607  0.336607  0.504722      2.000000
 -0.168304  0.336607  0.420602      2.000000

 Subroutine IBZKPT_HF returns following result:

 Found    336 k-points in 1st BZ
 the following    336 k-points will be used (e.g. in the exchange kernel)
 Following reciprocal coordinates:   # in IRBZ
  0.000000  0.000000  0.000000       1 t-inv F
  0.166667  0.000000 -0.000000       2 t-inv F
  0.333333  0.000000 -0.000000       3 t-inv F
  0.500000  0.000000 -0.000000       4 t-inv F
  0.166667  0.166667  0.000000       5 t-inv F
  0.333333  0.166667 -0.000000       6 t-inv F
  0.500000  0.166667 -0.000000       7 t-inv F
 -0.333333  0.166667  0.000000       8 t-inv F
 -0.166667  0.166667 -0.000000       9 t-inv F
  0.166667  0.333333  0.000000      10 t-inv F
  0.333333  0.333333 -0.000000      11 t-inv F
  0.500000  0.333333  0.000000      12 t-inv F
 -0.333333  0.333333  0.000000      13 t-inv F
 -0.166667  0.333333 -0.000000      14 t-inv F
  0.166667  0.500000 -0.000000      15 t-inv F
  0.333333  0.500000  0.000000      16 t-inv F
  0.500000  0.500000  0.000000      17 t-inv F
 -0.000000 -0.000000  0.250000      18 t-inv F
  0.166667  0.000000  0.250000      19 t-inv F
  0.333333  0.000000  0.250000      20 t-inv F
  0.500000  0.000000  0.250000      21 t-inv F
 -0.333333 -0.000000  0.250000      22 t-inv F
 -0.166667 -0.000000  0.250000      23 t-inv F
  0.166667  0.166667  0.250000      24 t-inv F
  0.333333  0.166667  0.250000      25 t-inv F
  0.500000  0.166667  0.250000      26 t-inv F
 -0.333333  0.166667  0.250000      27 t-inv F
 -0.166667  0.166667  0.250000      28 t-inv F
  0.166667  0.333333  0.250000      29 t-inv F
  0.333333  0.333333  0.250000      30 t-inv F
  0.500000  0.333333  0.250000      31 t-inv F
 -0.333333  0.333333  0.250000      32 t-inv F
 -0.166667  0.333333  0.250000      33 t-inv F
  0.166667  0.500000  0.250000      34 t-inv F
  0.333333  0.500000  0.250000      35 t-inv F
  0.500000  0.500000  0.250000      36 t-inv F
  0.166667 -0.333333  0.250000      37 t-inv F
 -0.333333 -0.333333  0.250000      38 t-inv F
 -0.166667 -0.333333  0.250000      39 t-inv F
  0.333333 -0.166667  0.250000      40 t-inv F
 -0.333333 -0.166667  0.250000      41 t-inv F
 -0.166667 -0.166667  0.250000      42 t-inv F
 -0.000000 -0.000000  0.500000      43 t-inv F
  0.166667  0.000000  0.500000      44 t-inv F
  0.333333  0.000000  0.500000      45 t-inv F
  0.166667  0.166667  0.500000      46 t-inv F
 -0.333333  0.166667  0.500000      47 t-inv F
 -0.166667  0.166667  0.500000      48 t-inv F
  0.333333  0.333333  0.500000      49 t-inv F
[...]
   0.25000000  0.75000000  0.50000000
   0.11777234  0.13390109  0.24359300
   0.63863466  0.62250591  0.24359300
   0.86609891  0.36136534  0.75640700
   0.37749409  0.88222766  0.75640700

 position of ions in cartesian coordinates  (Angst):
   0.00000000  0.00000000  0.00000000
   5.37421716  2.68710909  2.68811082
   2.68710848  2.68710889 -0.00000000
   2.68710827  5.37421757  2.68811082
   1.28749493  1.37417453  1.30960993
   4.08672202  4.00004325  1.30960993
   6.68715132  3.97460423  4.06661170
   4.06128259  6.77383132  4.06661170

 k-point  1 :   0.0000 0.0000 0.0000  plane waves:    3931
 k-point  2 :   0.1667 0.0000-0.0000  plane waves:    3926
 k-point  3 :   0.3333 0.0000-0.0000  plane waves:    3910
 k-point  4 :   0.5000 0.0000-0.0000  plane waves:    3948
 k-point  5 :   0.1667 0.1667 0.0000  plane waves:    3933
 k-point  6 :   0.3333 0.1667-0.0000  plane waves:    3932
 k-point  7 :   0.5000 0.1667-0.0000  plane waves:    3937
 k-point  8 :  -0.3333 0.1667 0.0000  plane waves:    3934
 k-point  9 :  -0.1667 0.1667-0.0000  plane waves:    3930
 k-point 10 :   0.1667 0.3333 0.0000  plane waves:    3932
 k-point 11 :   0.3333 0.3333-0.0000  plane waves:    3957
 k-point 12 :   0.5000 0.3333 0.0000  plane waves:    3946
 k-point 13 :  -0.3333 0.3333 0.0000  plane waves:    3908
 k-point 14 :  -0.1667 0.3333-0.0000  plane waves:    3934
 k-point 15 :   0.1667 0.5000-0.0000  plane waves:    3937
 k-point 16 :   0.3333 0.5000 0.0000  plane waves:    3946
 k-point 17 :   0.5000 0.5000 0.0000  plane waves:    3922
 k-point 18 :  -0.0000-0.0000 0.2500  plane waves:    3936
 k-point 19 :   0.1667 0.0000 0.2500  plane waves:    3928
 k-point 20 :   0.3333 0.0000 0.2500  plane waves:    3938
 k-point 21 :   0.5000 0.0000 0.2500  plane waves:    3940
 k-point 22 :  -0.3333-0.0000 0.2500  plane waves:    3963
 k-point 23 :  -0.1667-0.0000 0.2500  plane waves:    3941
 k-point 24 :   0.1667 0.1667 0.2500  plane waves:    3928
 k-point 25 :   0.3333 0.1667 0.2500  plane waves:    3925
 k-point 26 :   0.5000 0.1667 0.2500  plane waves:    3948
 k-point 27 :  -0.3333 0.1667 0.2500  plane waves:    3946
 k-point 28 :  -0.1667 0.1667 0.2500  plane waves:    3951
 k-point 29 :   0.1667 0.3333 0.2500  plane waves:    3925
 k-point 30 :   0.3333 0.3333 0.2500  plane waves:    3938
 k-point 31 :   0.5000 0.3333 0.2500  plane waves:    3933
 k-point 32 :  -0.3333 0.3333 0.2500  plane waves:    3946
 k-point 33 :  -0.1667 0.3333 0.2500  plane waves:    3939
 k-point 34 :   0.1667 0.5000 0.2500  plane waves:    3948
 k-point 35 :   0.3333 0.5000 0.2500  plane waves:    3933
 k-point 36 :   0.5000 0.5000 0.2500  plane waves:    3952
 k-point 37 :   0.1667-0.3333 0.2500  plane waves:    3946
 k-point 38 :  -0.3333-0.3333 0.2500  plane waves:    3957
 k-point 39 :  -0.1667-0.3333 0.2500  plane waves:    3954
 k-point 40 :   0.3333-0.1667 0.2500  plane waves:    3939
 k-point 41 :  -0.3333-0.1667 0.2500  plane waves:    3954
 k-point 42 :  -0.1667-0.1667 0.2500  plane waves:    3943
 k-point 43 :  -0.0000-0.0000 0.5000  plane waves:    3928
 k-point 44 :   0.1667 0.0000 0.5000  plane waves:    3946
 k-point 45 :   0.3333 0.0000 0.5000  plane waves:    3957
 k-point 46 :   0.1667 0.1667 0.5000  plane waves:    3939
 k-point 47 :  -0.3333 0.1667 0.5000  plane waves:    3956
 k-point 48 :  -0.1667 0.1667 0.5000  plane waves:    3934
 k-point 49 :   0.3333 0.3333 0.5000  plane waves:    3938
 k-point 50 :  -0.3333 0.3333 0.5000  plane waves:    3948
 k-point 51 :  -0.1667 0.3333 0.5000  plane waves:    3956

 maximum and minimum number of plane-waves per node :      1035      956

 maximum number of plane-waves:      3963
 maximum index in each direction:
   IXMAX=   10   IYMAX=   10   IZMAX=   12
   IXMIN=  -10   IYMIN=  -10   IZMIN=  -12

 WARNING: aliasing errors must be expected set NGX to  42 to avoid them
 WARNING: aliasing errors must be expected set NGY to  42 to avoid them
 WARNING: aliasing errors must be expected set NGZ to  50 to avoid them
 aliasing errors are usually negligible using standard VASP settings
 and one can safely disregard these warnings

 parallel 3D FFT for wavefunctions:
    minimum data exchange during FFTs selected (reduces bandwidth)
 parallel 3D FFT for charge:
    minimum data exchange during FFTs selected (reduces bandwidth)

 FFT grid for exact exchange (Hartree Fock)
  NGX = 24; NGY = 24; NGZ = 28

 Radii for the augmentation spheres in the non-local exchange
 for species   1 augmentation radius   1.120 (default was   0.830)
       energy cutoff for augmentation   2000.0
 for species   2 augmentation radius   1.285 (default was   0.952)
       energy cutoff for augmentation   2000.0
 for species   3 augmentation radius   1.471 (default was   1.089)
       energy cutoff for augmentation   2000.0
 for species   4 augmentation radius   1.309 (default was   0.970)
       energy cutoff for augmentation   2000.0

 real space projection operators:
  max/ min on nodes  :        243.41        236.35

 Broyden mixing: mesh for mixing (old mesh)
   NGX = 19   NGY = 19   NGZ = 25
  (NGX  = 80   NGY  = 80   NGZ  = 96)
  gives a total of   9025 points

 initial charge density was supplied:
 charge density of overlapping atoms calculated
 number of electron      84.0000000 magnetization
 charge density for first step will be calculated from the start-wavefunctions

 Maximum index for augmentation-charges         1338 (set IRDMAX)

 First call to EWALD:  gamma=   0.330
 Maximum number of real-space cells 3x 3x 3
 Maximum number of reciprocal cells 3x 3x 3

 FEWALD executed in parallel

----------------------------------------- Iteration    1(   1)  ---------------------------------------

 eigenvalue-minimisations  :  7400
 total energy-change (2. order) : 0.4875166E+04  (-0.1575976E+05)
 number of electron      84.0000000 magnetization
 augmentation part       84.0000000 magnetization

 Free energy of the ion-electron system (eV)
  alpha Z        PSCENC =       284.22600032
  Ewald energy   TEWEN  =     -7231.03206995
  -Hartree energ DENC   =     -5065.55749552
  -exchange      EXHF   =         0.00000000
  -V(xc)+E(xc)   XCENC  =       288.39022300
  PAW double counting   =     10942.69525278   -11381.18114668
  entropy T*S    EENTRO =        -0.00007836
  eigenvalues    EBANDS =      4062.31400762
  atomic energy  EATOM  =     12975.31123126
  free energy    TOTEN  =      4875.16592447 eV

  energy without entropy =     4875.16600283  energy(sigma->0) =     4875.16596365

[...]

 eigenvalue-minimisations  :  5892
 total energy-change (2. order) :-0.3544118E+04  (-0.3467259E+04)
 number of electron      84.0000000 magnetization
 augmentation part       84.0000000 magnetization

[...]

----------------------------------------- Iteration    1(  24)  ---------------------------------------

 eigenvalue-minimisations  :     0
 total energy-change (2. order) :-0.2233592E-06  (-0.8313598E-06)
 number of electron      83.9999931 magnetization
 augmentation part       34.2664517 magnetization

 Free energy of the ion-electron system (eV)
  alpha Z        PSCENC =       284.22600032
  Ewald energy   TEWEN  =     -7231.03206995
  -Hartree energ DENC   =     -5043.67667604
  -exchange      EXHF   =       242.38116632
  -V(xc)+E(xc)   XCENC  =       288.77598429
  PAW double counting   =     14175.71520013   -14624.58666672
  entropy T*S    EENTRO =        -0.00000000
  eigenvalues    EBANDS =     -1105.64807773
  atomic energy  EATOM  =     12975.31123126
  free energy    TOTEN  =       -38.53390812 eV

  energy without entropy =      -38.53390812  energy(sigma->0) =      -38.53390812

  average scaling for gradient   0.7086

 the core state eigenenergies are
   1-  1s    -70.2207  2s    -70.4726  2p    -70.4726  3s    -70.4726
   2-  1s    -70.2203  2s    -70.4684  2p    -70.4684  3s    -70.4684
   3-  1s    -26.8940  2s    -27.0523  2p    -27.0523  3s    -27.0523  3p    -27.0523

   4-  1s    -96.9028  2s    -97.0117  2p    -97.0117  3s    -97.0117  3p    -97.0117
       3d    -97.0117  4s    -97.0117  4p    -97.0117
   5-  1s    -83.4145  2s    -83.6087  2p    -83.6087
   6-  1s    -83.4145  2s    -83.6087  2p    -83.6087
   7-  1s    -83.4145  2s    -83.6087  2p    -83.6087
   8-  1s    -83.4145  2s    -83.6087  2p    -83.6087

 E-fermi :   4.3944     XC(G=0):  -8.2556     alpha+bet :-10.2564

 k-point     1 :       0.0000    0.0000    0.0000
  band No.  band energies     occupation
      1     -68.3061      2.00000
      2     -68.2762      2.00000
      3     -68.2762      2.00000
      4     -68.2572      2.00000
      5     -68.2513      2.00000
      6     -68.2513      2.00000
      7     -19.8587      2.00000
      8     -19.8543      2.00000
      9     -19.8543      2.00000
     10     -19.7499      2.00000
     11     -19.7432      2.00000
     12     -11.6179      2.00000
     13      -9.8716      2.00000
     14      -9.8538      2.00000
     15      -9.8538      2.00000
     16      -4.4968      2.00000
     17      -4.3851      2.00000
     18      -4.3335      2.00000
     19      -4.3335      2.00000
     20      -4.3306      2.00000
     21      -4.0112      2.00000
     22      -1.7011      2.00000
     23      -1.0701      2.00000
     24      -1.0141      2.00000
     25      -0.5957      2.00000
     26      -0.4307      2.00000
     27      -0.4307      2.00000
     28       0.1792      2.00000
     29       0.1792      2.00000
     30       0.5331      2.00000
     31       0.5807      2.00000
     32       0.5807      2.00000
     33       1.6007      2.00000
     34       1.6832      2.00000
     35       1.8350      2.00000
     36       2.1853      2.00000
     37       2.2431      2.00000
     38       2.2431      2.00000
     39       2.4059      2.00000
     40       4.2568      2.00000
     41       4.2568      2.00000
     42       4.3094      2.00000
     43       5.8460      0.00000
     44       7.3099      0.00000
     45       8.4462      0.00000
     46       9.3045      0.00000
     47       9.3048      0.00000
     48      10.5153      0.00000
     49      10.8168      0.00000
     50      10.8713      0.00000
     51      11.2747      0.00000
     52      12.6132      0.00000

[...]

 k-point    51 :      -0.1667    0.3333    0.5000
  band No.  band energies     occupation
      1     -68.3063      2.00000
      2     -68.2764      2.00000
      3     -68.2763      2.00000
      4     -68.2573      2.00000
      5     -68.2515      2.00000
      6     -68.2514      2.00000
      7     -19.8595      2.00000
      8     -19.8547      2.00000
      9     -19.8543      2.00000
     10     -19.7493      2.00000
     11     -19.7429      2.00000
     12     -10.9114      2.00000
     13     -10.3707      2.00000
     14     -10.2260      2.00000
     15      -9.9521      2.00000
     16      -4.7216      2.00000
     17      -4.4239      2.00000
     18      -4.3842      2.00000
     19      -4.3041      2.00000
     20      -4.2726      2.00000
     21      -3.5000      2.00000
     22      -1.9301      2.00000
     23      -1.3725      2.00000
     24      -1.0505      2.00000
     25      -0.6758      2.00000
     26      -0.1661      2.00000
     27       0.0459      2.00000
     28       0.1184      2.00000
     29       0.1889      2.00000
     30       0.4987      2.00000
     31       0.7366      2.00000
     32       0.8420      2.00000
     33       1.7760      2.00000
     34       1.8078      2.00000
     35       1.8939      2.00000
     36       2.0895      2.00000
     37       2.4048      2.00000
     38       2.5633      2.00000
     39       2.8980      2.00000
     40       3.1305      2.00000
     41       3.2594      2.00000
     42       3.6911      2.00000
     43       7.0138      0.00000
     44       8.1676      0.00000
     45       8.5698      0.00000
     46       9.2132      0.00000
     47       9.3745      0.00000
     48      10.4150      0.00000
     49      10.5751      0.00000
     50      11.3277      0.00000
     51      11.7560      0.00000
     52      11.8905      0.00000

 soft charge-density along one line, spin component           1
         0         1         2         3         4         5         6         7         8         9
 total charge-density along one line

------------------------ aborting loop because EDIFF is reached ----------------------------------------

 total charge

# of ion     s       p       d       tot
  1        0.215   6.175   9.061  15.452
  2        0.214   6.173   9.062  15.449
  3        0.500   0.488   9.840  10.828
  4        1.082   1.182  10.137  12.401
  5        1.318   2.430   0.000   3.747
  6        1.318   2.430   0.000   3.748
  7        1.318   2.430   0.000   3.748
  8        1.317   2.429   0.000   3.746
tot        7.283  23.736  38.101  69.120

  FORCE on cell =-STRESS in cart. coord.  units (eV):
  Direction    XX          YY          ZZ          XY          YZ          ZX
  Alpha Z   284.22600   284.22600   284.22600
  Ewald   -2422.03284 -2422.03284 -2386.97612     0.00000    -0.00000     0.00000
  Hartree  1669.65719  1669.65719  1704.35852    -0.00007     0.00030     0.00028
  E(xc)    -376.28015  -376.28015  -376.27373    -0.00002    -0.00001    -0.00001
  Local    -600.84825  -600.84825  -670.72975     0.00049     0.00015     0.00018
  n-local   662.58453   662.72118   662.93115     0.01758     0.00386     0.14039
  augment   456.06136   456.06136   455.68606    -0.00004    -0.00139    -0.00139
  Kinetic   912.29586   914.29043   913.12487    -0.04650    -0.16654    -0.33824
  Fock     -584.26241  -584.34819  -583.90533     0.00513    -0.01082    -0.03565
  Total       2.42401     2.42401     2.44165     0.00000     0.00000     0.00000
  in kB      25.01139    25.01139    25.19340     0.00000     0.00000     0.00000

 VOLUME and BASIS-vectors are now :
  energy-cutoff  :      500.00
  volume of cell :      155.28
      direct lattice vectors                 reciprocal lattice vectors
     5.374217367  0.000000411  0.000000000     0.186073605  0.000000014 -0.093002118
    -0.000000411  5.374217367 -0.000000000    -0.000000014  0.186073605 -0.093002118
     2.687108478  2.687108889  5.376221630    -0.000000000  0.000000000  0.186004237

  length of vectors
     5.374217367  5.374217367  6.583681733     0.208021106  0.208021106  0.186004237

 FORCES acting on ions:
    Electron-Ion                     Ewald-Force                    Non-Local-Force
   -.393E-05 0.882E-05 -.248E-05   0.844E-11 -.234E-11 -.884E-11   -.434E-18 -.217E-18 -.434E-18
   0.188E-05 -.477E-05 -.663E-06   -.726E-11 -.246E-11 0.884E-11   0.152E-17 0.000E+00 0.000E+00
   0.245E-05 -.858E-05 0.505E-06   0.577E-11 -.260E-11 0.625E-11   0.000E+00 0.000E+00 0.434E-18
   -.136E-07 0.258E-05 0.652E-06   -.547E-11 -.219E-11 -.635E-11   -.499E-17 -.499E-17 0.434E-18
   -.648E+02 -.733E+01 0.589E+01   0.625E+02 0.859E+01 -.718E+01   0.204E+01 -.114E+01 0.117E+01
   0.648E+02 0.733E+01 0.589E+01   -.625E+02 -.859E+01 -.718E+01   -.204E+01 0.114E+01 0.117E+01
   0.733E+01 -.648E+02 -.589E+01   -.859E+01 0.625E+02 0.718E+01   0.114E+01 0.204E+01 -.117E+01
   -.733E+01 0.648E+02 -.589E+01   0.859E+01 -.625E+02 0.718E+01   -.114E+01 -.204E+01 -.117E+01
   -.337E-04 -.221E-04 0.284E-04   0.160E-13 -.284E-13 -.577E-13   0.444E-15 -.444E-15 0.000E+00

 POSITION                                       TOTAL-FORCE (eV/Angst)
      0.00000      0.00000      0.00000        -0.000000     -0.000000     -0.000000
      5.37422      2.68711      2.68811        -0.000000     -0.000000     -0.000000
      2.68711      2.68711     -0.00000        -0.000000      0.000000     -0.000000
      2.68711      5.37422      2.68811        -0.000000     -0.000000     -0.000000
      1.28749      1.37417      1.30961         0.007741     -0.001408     -0.002044
      4.08672      4.00004      1.30961        -0.007741      0.001408     -0.002044
      6.68715      3.97460      4.06661         0.001408      0.007741      0.002044
      4.06128      6.77383      4.06661        -0.001408     -0.007741      0.002044
    total drift:                               -0.000034     -0.000022      0.000028

  FREE ENERGIE OF THE ION-ELECTRON SYSTEM (eV)
  free  energy   TOTEN  =       -38.53390812 eV

  energy  without entropy=      -38.53390812  energy(sigma->0) =      -38.53390812

 writing wavefunctions

 total charge

# of ion     s       p       d       tot
  1        0.215   6.175   9.061  15.452
  2        0.214   6.173   9.062  15.449
  3        0.500   0.488   9.840  10.828
  4        1.082   1.182  10.137  12.401
  5        1.318   2.430   0.000   3.747
  6        1.318   2.430   0.000   3.748
  7        1.318   2.430   0.000   3.748
  8        1.317   2.429   0.000   3.746
tot        7.283  23.736  38.101  69.120