 vasp.5.4.1 24Jun15 (build Nov 25 2015 16:01:35) complex

 executed on         CrayXC-Intel date 2016.09.07  14:56:21

 INCAR:
 POTCAR:    PAW_PBE Si 05Jan2001

 POTCAR:    PAW_PBE Si 05Jan2001
   VRHFIN =Si: s2p2

   TITEL  = PAW_PBE Si 05Jan2001
   POMASS =   28.085; ZVAL   =    4.000    mass and valenz
   ENMAX  =  245.345; ENMIN  =  184.009 eV

  PAW_PBE Si 05Jan2001                  :

 POSCAR: Si (Madelung Handbook, 295.7K)
  positions in direct lattice
  velocities in cartesian coordinates
 exchange correlation table for  LEXCH =        8
   RHO(1)=    0.500       N(1)  =     2000
   RHO(2)=  100.500       N(2)  =     4000

 ion  position               nearest neighbor table
   1  0.000  0.000  0.000-   2 2.35   2 2.35   2 2.35   2 2.35
   2  0.250  0.250  0.250-   1 2.35   1 2.35   1 2.35   1 2.35

  LATTYP: Found a face centered cubic cell.
 ALAT       =     5.4310000000

  Lattice vectors:

 A1 = (   2.7155000000,   2.7155000000,   0.0000000000)
 A2 = (   2.7155000000,   0.0000000000,  -2.7155000000)
 A3 = (   0.0000000000,   2.7155000000,  -2.7155000000)

Analysis of symmetry for initial positions (statically):
 Subroutine PRICEL returns:
 Original cell was already a primitive cell.

 Routine SETGRP: Setting up the symmetry group for a
 face centered cubic supercell.

 Subroutine GETGRP returns: Found 48 space group operations
 (whereof 24 operations were pure point group operations)
 out of a pool of 48 trial point group operations.

The static configuration has the point symmetry T_d .
 The point group associated with its full space group is O_h .

Analysis of symmetry for dynamics (positions and initial velocities):
 Subroutine PRICEL returns:
 Original cell was already a primitive cell.

 Routine SETGRP: Setting up the symmetry group for a
 face centered cubic supercell.

 Subroutine GETGRP returns: Found 48 space group operations
 (whereof 24 operations were pure point group operations)
 out of a pool of 48 trial point group operations.

The dynamic configuration has the point symmetry T_d .
 The point group associated with its full space group is O_h .

 Subroutine INISYM returns: Found 48 space group operations
 (whereof 24 operations are pure point group operations),
 and found     1 'primitive' translations

 KPOINTS: Automatically generated mesh: SCF=15, 0.
  k-points in reciprocal lattice
Space group operators:
 irot       det(A)        alpha          n_x          n_y          n_z        tau_x        tau_y        tau_z
    1     1.000000     0.000001     1.000000     0.000000     0.000000     0.000000     0.000000     0.000000
    2     1.000000   120.000000    -0.577350    -0.577350     0.577350     0.000000     0.000000     0.000000
    3     1.000000   120.000000     0.577350     0.577350    -0.577350     0.000000     0.000000     0.000000
    4    -1.000000    90.000000    -1.000000     0.000000     0.000000     0.000000     0.000000     0.000000
    5    -1.000000   180.000000     0.707107     0.707107     0.000000     0.000000     0.000000     0.000000
    6    -1.000000    90.000000     0.000000     1.000000     0.000000     0.000000     0.000000     0.000000
    7     1.000000   180.000000     1.000000     0.000000     0.000000     0.000000     0.000000     0.000000
    8     1.000000   120.000000     0.577350     0.577350     0.577350     0.000000     0.000000     0.000000
    9     1.000000   120.000000    -0.577350     0.577350     0.577350     0.000000     0.000000     0.000000
   10    -1.000000    90.000000     1.000000     0.000000     0.000000     0.000000     0.000000     0.000000
   11    -1.000000    90.000000     0.000000     0.000000     1.000000     0.000000     0.000000     0.000000
   12    -1.000000   180.000000     0.707107     0.000000    -0.707107     0.000000     0.000000     0.000000
   13     1.000000   120.000000     0.577350    -0.577350    -0.577350     0.000000     0.000000     0.000000
   14     1.000000   120.000000     0.577350    -0.577350     0.577350     0.000000     0.000000     0.000000
   15     1.000000   180.000000     0.000000     0.000000     1.000000     0.000000     0.000000     0.000000
   16    -1.000000    90.000000     0.000000    -1.000000     0.000000     0.000000     0.000000     0.000000
   17    -1.000000   180.000000     0.000000    -0.707107     0.707107     0.000000     0.000000     0.000000
   18    -1.000000    90.000000     0.000000     0.000000    -1.000000     0.000000     0.000000     0.000000
   19     1.000000   120.000000    -0.577350    -0.577350    -0.577350     0.000000     0.000000     0.000000
   20     1.000000   180.000000     0.000000     1.000000     0.000000     0.000000     0.000000     0.000000
   21     1.000000   120.000000    -0.577350     0.577350    -0.577350     0.000000     0.000000     0.000000
   22    -1.000000   180.000000     0.707107    -0.707107     0.000000     0.000000     0.000000     0.000000
   23    -1.000000   180.000000     0.000000     0.707107     0.707107     0.000000     0.000000     0.000000
   24    -1.000000   180.000000     0.707107     0.000000     0.707107     0.000000     0.000000     0.000000
   25    -1.000000     0.000001     1.000000     0.000000     0.000000     0.250000     0.250000     0.250000
   26    -1.000000   120.000000    -0.577350    -0.577350     0.577350     0.250000     0.250000     0.250000
   27    -1.000000   120.000000     0.577350     0.577350    -0.577350     0.250000     0.250000     0.250000
   28     1.000000    90.000000    -1.000000     0.000000     0.000000     0.250000     0.250000     0.250000
   29     1.000000   180.000000     0.707107     0.707107     0.000000     0.250000     0.250000     0.250000
   30     1.000000    90.000000     0.000000     1.000000     0.000000     0.250000     0.250000     0.250000
   31    -1.000000   180.000000     1.000000     0.000000     0.000000     0.250000     0.250000     0.250000
   32    -1.000000   120.000000     0.577350     0.577350     0.577350     0.250000     0.250000     0.250000
   33    -1.000000   120.000000    -0.577350     0.577350     0.577350     0.250000     0.250000     0.250000
   34     1.000000    90.000000     1.000000     0.000000     0.000000     0.250000     0.250000     0.250000
   35     1.000000    90.000000     0.000000     0.000000     1.000000     0.250000     0.250000     0.250000
   36     1.000000   180.000000     0.707107     0.000000    -0.707107     0.250000     0.250000     0.250000
   37    -1.000000   120.000000     0.577350    -0.577350    -0.577350     0.250000     0.250000     0.250000
   38    -1.000000   120.000000     0.577350    -0.577350     0.577350     0.250000     0.250000     0.250000
   39    -1.000000   180.000000     0.000000     0.000000     1.000000     0.250000     0.250000     0.250000
   40     1.000000    90.000000     0.000000    -1.000000     0.000000     0.250000     0.250000     0.250000
   41     1.000000   180.000000     0.000000    -0.707107     0.707107     0.250000     0.250000     0.250000
   42     1.000000    90.000000     0.000000     0.000000    -1.000000     0.250000     0.250000     0.250000
   43    -1.000000   120.000000    -0.577350    -0.577350    -0.577350     0.250000     0.250000     0.250000
   44    -1.000000   180.000000     0.000000     1.000000     0.000000     0.250000     0.250000     0.250000
   45    -1.000000   120.000000    -0.577350     0.577350    -0.577350     0.250000     0.250000     0.250000
   46     1.000000   180.000000     0.707107    -0.707107     0.000000     0.250000     0.250000     0.250000
   47     1.000000   180.000000     0.000000     0.707107     0.707107     0.250000     0.250000     0.250000
   48     1.000000   180.000000     0.707107     0.000000     0.707107     0.250000     0.250000     0.250000

 Subroutine IBZKPT_HF returns following result:

 Found    405 k-points in 1st BZ
 the following    405 k-points will be used (e.g. in the exchange kernel)
 Following reciprocal coordinates:   # in IRBZ
  0.000000  0.000000  0.000000    0.00490196   1 t-inv F
  0.166667  0.000000  0.000000    0.00490196   2 t-inv F
  0.333333  0.000000  0.000000    0.00490196   3 t-inv F
  0.500000  0.000000  0.000000    0.00490196   4 t-inv F
  0.166667  0.166667  0.000000    0.00490196   5 t-inv F
  0.333333  0.166667  0.000000    0.00490196   6 t-inv F
  0.500000  0.166667  0.000000    0.00490196   7 t-inv F
 -0.333333  0.166667  0.000000    0.00490196   8 t-inv F
 -0.166667  0.166667  0.000000    0.00490196   9 t-inv F
  0.333333  0.333333  0.000000    0.00490196  10 t-inv F
  0.500000  0.333333  0.000000    0.00490196  11 t-inv F
 -0.333333  0.333333  0.000000    0.00490196  12 t-inv F
  0.500000  0.500000  0.000000    0.00490196  13 t-inv F
  0.500000  0.333333  0.166667    0.00490196  14 t-inv F
 -0.333333  0.333333  0.166667    0.00490196  15 t-inv F
  0.419000  0.000000  0.419000    0.00000000  16 t-inv F
  0.419000  0.002488  0.419000    0.00000000  17 t-inv F
  0.419000  0.004975  0.419000    0.00000000  18 t-inv F
  0.419000  0.007463  0.419000    0.00000000  19 t-inv F
  0.419000  0.009950  0.419000    0.00000000  20 t-inv F
  0.419000  0.012438  0.419000    0.00000000  21 t-inv F
  0.419000  0.014925  0.419000    0.00000000  22 t-inv F
  0.419000  0.017413  0.419000    0.00000000  23 t-inv F
  0.419000  0.019901  0.419000    0.00000000  24 t-inv F
  0.419000  0.022388  0.419000    0.00000000  25 t-inv F
  0.419000  0.024876  0.419000    0.00000000  26 t-inv F
  0.419000  0.027363  0.419000    0.00000000  27 t-inv F
  0.419000  0.029851  0.419000    0.00000000  28 t-inv F
  0.419000  0.032338  0.419000    0.00000000  29 t-inv F
  0.419000  0.034826  0.419000    0.00000000  30 t-inv F
  0.419000  0.037313  0.419000    0.00000000  31 t-inv F
  0.419000  0.039801  0.419000    0.00000000  32 t-inv F
  0.419000  0.042289  0.419000    0.00000000  33 t-inv F
  0.419000  0.044776  0.419000    0.00000000  34 t-inv F
  0.419000  0.047264  0.419000    0.00000000  35 t-inv F
  0.419000  0.049751  0.419000    0.00000000  36 t-inv F
  0.419000  0.052239  0.419000    0.00000000  37 t-inv F
  0.419000  0.054726  0.419000    0.00000000  38 t-inv F
  0.419000  0.057214  0.419000    0.00000000  39 t-inv F
  0.419000  0.059701  0.419000    0.00000000  40 t-inv F
  0.419000  0.062189  0.419000    0.00000000  41 t-inv F
  0.419000  0.064677  0.419000    0.00000000  42 t-inv F
  0.419000  0.067164  0.419000    0.00000000  43 t-inv F
  0.419000  0.069652  0.419000    0.00000000  44 t-inv F
  0.419000  0.072139  0.419000    0.00000000  45 t-inv F
  0.419000  0.074627  0.419000    0.00000000  46 t-inv F
  0.419000  0.077114  0.419000    0.00000000  47 t-inv F
  0.419000  0.079602  0.419000    0.00000000  48 t-inv F
  0.419000  0.082090  0.419000    0.00000000  49 t-inv F
  0.419000  0.084577  0.419000    0.00000000  50 t-inv F
  0.419000  0.087065  0.419000    0.00000000  51 t-inv F
  0.419000  0.089552  0.419000    0.00000000  52 t-inv F
  0.419000  0.092040  0.419000    0.00000000  53 t-inv F
  0.419000  0.094527  0.419000    0.00000000  54 t-inv F
  0.419000  0.097015  0.419000    0.00000000  55 t-inv F
  0.419000  0.099502  0.419000    0.00000000  56 t-inv F
[...]
 k-point  4 :   0.5000 0.0000 0.0000  plane waves:    1008
 k-point  5 :   0.1667 0.1667 0.0000  plane waves:     998
 k-point  6 :   0.3333 0.1667 0.0000  plane waves:    1011
 k-point  7 :   0.5000 0.1667 0.0000  plane waves:    1017
 k-point  8 :  -0.3333 0.1667 0.0000  plane waves:    1019
 k-point  9 :  -0.1667 0.1667 0.0000  plane waves:    1013
 k-point 10 :   0.3333 0.3333 0.0000  plane waves:    1018
 k-point 11 :   0.5000 0.3333 0.0000  plane waves:    1012
 k-point 12 :  -0.3333 0.3333 0.0000  plane waves:    1015
 k-point 13 :   0.5000 0.5000 0.0000  plane waves:    1034
 k-point 14 :   0.5000 0.3333 0.1667  plane waves:    1032
 k-point 15 :  -0.3333 0.3333 0.1667  plane waves:    1020
 k-point 16 :   0.4190 0.0000 0.4190  plane waves:    1010
 k-point 17 :   0.4190 0.0025 0.4190  plane waves:    1011
 k-point 18 :   0.4190 0.0050 0.4190  plane waves:    1015
 k-point 19 :   0.4190 0.0075 0.4190  plane waves:    1015
 k-point 20 :   0.4190 0.0100 0.4190  plane waves:    1015
 k-point 21 :   0.4190 0.0124 0.4190  plane waves:    1017
 k-point 22 :   0.4190 0.0149 0.4190  plane waves:    1017
 k-point 23 :   0.4190 0.0174 0.4190  plane waves:    1017
 k-point 24 :   0.4190 0.0199 0.4190  plane waves:    1017
 k-point 25 :   0.4190 0.0224 0.4190  plane waves:    1019
 k-point 26 :   0.4190 0.0249 0.4190  plane waves:    1019
 k-point 27 :   0.4190 0.0274 0.4190  plane waves:    1019
 k-point 28 :   0.4190 0.0299 0.4190  plane waves:    1019
 k-point 29 :   0.4190 0.0323 0.4190  plane waves:    1020
 k-point 30 :   0.4190 0.0348 0.4190  plane waves:    1020
 k-point 31 :   0.4190 0.0373 0.4190  plane waves:    1020
 k-point 32 :   0.4190 0.0398 0.4190  plane waves:    1022
 k-point 33 :   0.4190 0.0423 0.4190  plane waves:    1024
 k-point 34 :   0.4190 0.0448 0.4190  plane waves:    1025
 k-point 35 :   0.4190 0.0473 0.4190  plane waves:    1025
 k-point 36 :   0.4190 0.0498 0.4190  plane waves:    1024
 k-point 37 :   0.4190 0.0522 0.4190  plane waves:    1024
 k-point 38 :   0.4190 0.0547 0.4190  plane waves:    1024
 k-point 39 :   0.4190 0.0572 0.4190  plane waves:    1024
 k-point 40 :   0.4190 0.0597 0.4190  plane waves:    1024
 k-point 41 :   0.4190 0.0622 0.4190  plane waves:    1024
 k-point 42 :   0.4190 0.0647 0.4190  plane waves:    1022
 k-point 43 :   0.4190 0.0672 0.4190  plane waves:    1022
 k-point 44 :   0.4190 0.0697 0.4190  plane waves:    1022
 k-point 45 :   0.4190 0.0721 0.4190  plane waves:    1022
 k-point 46 :   0.4190 0.0746 0.4190  plane waves:    1022
 k-point 47 :   0.4190 0.0771 0.4190  plane waves:    1024
 k-point 48 :   0.4190 0.0796 0.4190  plane waves:    1024
 k-point 49 :   0.4190 0.0821 0.4190  plane waves:    1024
 k-point 50 :   0.4190 0.0846 0.4190  plane waves:    1024
 k-point 51 :   0.4190 0.0871 0.4190  plane waves:    1024
 k-point 52 :   0.4190 0.0896 0.4190  plane waves:    1024
 k-point 53 :   0.4190 0.0920 0.4190  plane waves:    1026
 k-point 54 :   0.4190 0.0945 0.4190  plane waves:    1026
 k-point 55 :   0.4190 0.0970 0.4190  plane waves:    1026
 k-point 56 :   0.4190 0.0995 0.4190  plane waves:    1026
 k-point 57 :   0.4190 0.1020 0.4190  plane waves:    1024
 k-point 58 :   0.4190 0.1045 0.4190  plane waves:    1022
 k-point 59 :   0.4190 0.1070 0.4190  plane waves:    1023
 k-point 60 :   0.4190 0.1095 0.4190  plane waves:    1023
[...]
 k-point 85 :   0.4190 0.1716 0.4190  plane waves:    1023
 k-point 86 :   0.4190 0.1741 0.4190  plane waves:    1023
 k-point 87 :   0.4190 0.1766 0.4190  plane waves:    1023
 k-point 88 :   0.4190 0.1791 0.4190  plane waves:    1024
 k-point 89 :   0.4190 0.1816 0.4190  plane waves:    1024
 k-point 90 :   0.4190 0.1841 0.4190  plane waves:    1024
 k-point 91 :   0.4190 0.1866 0.4190  plane waves:    1024
 k-point 92 :   0.4190 0.1891 0.4190  plane waves:    1022
 k-point 93 :   0.4190 0.1915 0.4190  plane waves:    1022
 k-point 94 :   0.4190 0.1940 0.4190  plane waves:    1024
 k-point 95 :   0.4190 0.1965 0.4190  plane waves:    1024
 k-point 96 :   0.4190 0.1990 0.4190  plane waves:    1024
 k-point 97 :   0.4190 0.2015 0.4190  plane waves:    1023
 k-point 98 :   0.4190 0.2040 0.4190  plane waves:    1023
 k-point 99 :   0.4190 0.2065 0.4190  plane waves:    1021
 k-point ** :   0.4190 0.2090 0.4190  plane waves:    1021
 k-point ** :   0.4190 0.2114 0.4190  plane waves:    1021
 k-point ** :   0.4190 0.2139 0.4190  plane waves:    1021
 k-point ** :   0.4190 0.2164 0.4190  plane waves:    1023
 k-point ** :   0.4190 0.2189 0.4190  plane waves:    1019
 k-point ** :   0.4190 0.2214 0.4190  plane waves:    1019
 k-point ** :   0.4190 0.2239 0.4190  plane waves:    1017
 k-point ** :   0.4190 0.2264 0.4190  plane waves:    1016
 k-point ** :   0.4190 0.2289 0.4190  plane waves:    1016
 k-point ** :   0.4190 0.2313 0.4190  plane waves:    1016
 k-point ** :   0.4190 0.2338 0.4190  plane waves:    1016
 k-point ** :   0.4190 0.2363 0.4190  plane waves:    1016
 k-point ** :   0.4190 0.2388 0.4190  plane waves:    1016
 k-point ** :   0.4190 0.2413 0.4190  plane waves:    1016
 k-point ** :   0.4190 0.2438 0.4190  plane waves:    1016
 k-point ** :   0.4190 0.2463 0.4190  plane waves:    1016
 k-point ** :   0.4190 0.2488 0.4190  plane waves:    1016
 k-point ** :   0.4190 0.2512 0.4190  plane waves:    1016
 k-point ** :   0.4190 0.2537 0.4190  plane waves:    1016
 k-point ** :   0.4190 0.2562 0.4190  plane waves:    1016
 k-point ** :   0.4190 0.2587 0.4190  plane waves:    1016
 k-point ** :   0.4190 0.2612 0.4190  plane waves:    1014
 k-point ** :   0.4190 0.2637 0.4190  plane waves:    1014
 k-point ** :   0.4190 0.2662 0.4190  plane waves:    1014
 k-point ** :   0.4190 0.2687 0.4190  plane waves:    1016
 k-point ** :   0.4190 0.2711 0.4190  plane waves:    1016
 k-point ** :   0.4190 0.2736 0.4190  plane waves:    1014
 k-point ** :   0.4190 0.2761 0.4190  plane waves:    1014
 k-point ** :   0.4190 0.2786 0.4190  plane waves:    1014
 k-point ** :   0.4190 0.2811 0.4190  plane waves:    1014
 k-point ** :   0.4190 0.2836 0.4190  plane waves:    1014
 k-point ** :   0.4190 0.2861 0.4190  plane waves:    1014
 k-point ** :   0.4190 0.2886 0.4190  plane waves:    1016
 k-point ** :   0.4190 0.2910 0.4190  plane waves:    1016
 k-point ** :   0.4190 0.2935 0.4190  plane waves:    1014
 k-point ** :   0.4190 0.2960 0.4190  plane waves:    1014
 k-point ** :   0.4190 0.2985 0.4190  plane waves:    1016
 k-point ** :   0.4190 0.3010 0.4190  plane waves:    1016
 k-point ** :   0.4190 0.3035 0.4190  plane waves:    1015
 k-point ** :   0.4190 0.3060 0.4190  plane waves:    1017
 k-point ** :   0.4190 0.3085 0.4190  plane waves:    1017
 k-point ** :   0.4190 0.3109 0.4190  plane waves:    1017
 k-point ** :   0.4190 0.3134 0.4190  plane waves:    1017
 k-point ** :   0.4190 0.3159 0.4190  plane waves:    1017
 k-point ** :   0.4190 0.3184 0.4190  plane waves:    1013
 k-point ** :   0.4190 0.3209 0.4190  plane waves:    1015
 k-point ** :   0.4190 0.3234 0.4190  plane waves:    1015
 k-point ** :   0.4190 0.3259 0.4190  plane waves:    1015
 k-point ** :   0.4190 0.3284 0.4190  plane waves:    1017
 k-point ** :   0.4190 0.3308 0.4190  plane waves:    1017
 k-point ** :   0.4190 0.3333 0.4190  plane waves:    1017
 k-point ** :   0.4190 0.3358 0.4190  plane waves:    1017
 k-point ** :   0.4190 0.3383 0.4190  plane waves:    1017
 k-point ** :   0.4190 0.3408 0.4190  plane waves:    1017
 k-point ** :   0.4190 0.3433 0.4190  plane waves:    1017
 k-point ** :   0.4190 0.3458 0.4190  plane waves:    1015
 k-point ** :   0.4190 0.3483 0.4190  plane waves:    1015
 k-point ** :   0.4190 0.3507 0.4190  plane waves:    1015
 k-point ** :   0.4190 0.3532 0.4190  plane waves:    1015
 k-point ** :   0.4190 0.3557 0.4190  plane waves:    1017
[...]
 k-point ** :   0.4190 0.4627 0.4190  plane waves:    1023
 k-point ** :   0.4190 0.4652 0.4190  plane waves:    1022
 k-point ** :   0.4190 0.4677 0.4190  plane waves:    1022
 k-point ** :   0.4190 0.4701 0.4190  plane waves:    1022
 k-point ** :   0.4190 0.4726 0.4190  plane waves:    1022
 k-point ** :   0.4190 0.4751 0.4190  plane waves:    1022
 k-point ** :   0.4190 0.4776 0.4190  plane waves:    1022
 k-point ** :   0.4190 0.4801 0.4190  plane waves:    1020
 k-point ** :   0.4190 0.4826 0.4190  plane waves:    1020
 k-point ** :   0.4190 0.4851 0.4190  plane waves:    1020
 k-point ** :   0.4190 0.4876 0.4190  plane waves:    1020
 k-point ** :   0.4190 0.4900 0.4190  plane waves:    1018
 k-point ** :   0.4190 0.4925 0.4190  plane waves:    1018
 k-point ** :   0.4190 0.4950 0.4190  plane waves:    1018
 k-point ** :   0.4190 0.4975 0.4190  plane waves:    1020

 maximum and minimum number of plane-waves per node :       185      153

 maximum number of plane-waves:      1034
 maximum index in each direction:
   IXMAX=    7   IYMAX=    7   IZMAX=    7
   IXMIN=   -7   IYMIN=   -7   IZMIN=   -7

 WARNING: aliasing errors must be expected set NGX to  30 to avoid them
 WARNING: aliasing errors must be expected set NGY to  30 to avoid them
 WARNING: aliasing errors must be expected set NGZ to  30 to avoid them
 aliasing errors are usually negligible using standard VASP settings
 and one can safely disregard these warnings

 parallel 3D FFT for wavefunctions:
    minimum data exchange during FFTs selected (reduces bandwidth)
 parallel 3D FFT for charge:
    minimum data exchange during FFTs selected (reduces bandwidth)

 FFT grid for exact exchange (Hartree Fock)
  NGX = 16; NGY = 16; NGZ = 16

 Radii for the augmentation spheres in the non-local exchange
 for species   1 augmentation radius   1.335 (default was   0.989)
       energy cutoff for augmentation   2000.0

 real space projection operators:
  max/ min on nodes  :         27.70         13.92

 Maximum index for augmentation-charges in exchange          197
  SETUP_FOCK is finished

 Broyden mixing: mesh for mixing (old mesh)
   NGX = 13   NGY = 13   NGZ = 13
  (NGX  = 56   NGY  = 56   NGZ  = 56)
  gives a total of   2197 points

 initial charge density was supplied:
 charge density of overlapping atoms calculated
 number of electron       8.0000000 magnetization
 charge density for first step will be calculated from the start-wavefunctions

 Maximum index for augmentation-charges         1360 (set IRDMAX)

 First call to EWALD:  gamma=   0.518
 Maximum number of real-space cells 3x 3x 3
 Maximum number of reciprocal cells 3x 3x 3

 FEWALD executed in parallel

----------------------------------------- Iteration    1(   1)  ---------------------------------------

 eigenvalue-minimisations  :  6440
 total energy-change (2. order) : 0.2089449E+03  (-0.1980786E+04)
 number of electron       8.0000000 magnetization
 augmentation part        8.0000000 magnetization

 Free energy of the ion-electron system (eV)
  alpha Z        PSCENC =         3.36228930
  Ewald energy   TEWEN  =      -228.52143995
  -Hartree energ DENC   =       -11.00937461
  -exchange      EXHF   =         0.00000000
  -V(xc)+E(xc)   XCENC  =       -14.92076487
  PAW double counting   =       171.67484864     -143.81433621
  entropy T*S    EENTRO =        -0.00017624
  eigenvalues    EBANDS =       228.14638799
  atomic energy  EATOM  =       204.02745786
  free energy    TOTEN  =       208.94489190 eV

  energy without entropy =      208.94506814  energy(sigma->0) =      208.94498002
  exchange ACFDT corr.  =         0.00000000  see jH, gK, PRB 81, 115126

[...]

 eigenvalue-minimisations  :  5440
 total energy-change (2. order) :-0.2021269E+03  (-0.1948135E+03)
 number of electron       8.0000000 magnetization
 augmentation part        8.0000000 magnetization

[...]

----------------------------------------- Iteration    1(  14)  ---------------------------------------

 eigenvalue-minimisations  :     0
 total energy-change (2. order) :-0.1824654E-06  (-0.1494784E-07)
 number of electron       8.0000001 magnetization
 augmentation part       -0.4325872 magnetization

 Free energy of the ion-electron system (eV)
  alpha Z        PSCENC =         3.36228930
  Ewald energy   TEWEN  =      -228.52143995
  -Hartree energ DENC   =       -15.17399090
  -exchange      EXHF   =        11.19367643
  -V(xc)+E(xc)   XCENC  =       -14.39310092
  PAW double counting   =      1701.69982930    -1674.03343656
  entropy T*S    EENTRO =        -0.00000000
  eigenvalues    EBANDS =        -0.38228847
  atomic energy  EATOM  =       204.02745786
  free energy    TOTEN  =       -12.22100391 eV

  energy without entropy =      -12.22100391  energy(sigma->0) =      -12.22100391
  exchange ACFDT corr.  =         0.00000000  see jH, gK, PRB 81, 115126

  average scaling for gradient   1.2818

 the core state eigenenergies are
   1-  1s    -79.5016  2s    -79.7015  2p    -79.7015
   2-  1s    -79.5016  2s    -79.7015  2p    -79.7015

 E-fermi :   5.5590     XC(G=0):  -7.8373     alpha+bet :-11.9779

 k-point     1 :       0.0000    0.0000    0.0000
  band No.  band energies     occupation
      1      -7.7961      2.00000
      2       5.4976      2.00000
      3       5.4976      2.00000
      4       5.4976      2.00000
      5       8.8077      0.00000
      6       8.8077      0.00000
      7       8.8077      0.00000
      8       9.8151      0.00000

[...]

 k-point   216 :       0.4190    0.4975    0.4190
  band No.  band energies     occupation
      1      -5.2996      2.00000
      2      -1.9162      2.00000
      3       3.5400      2.00000
      4       4.1511      2.00000
      5       8.2457      0.00000
      6       9.6471      0.00000
      7       9.8617      0.00000
      8      14.4571      0.00000

 soft charge-density along one line, spin component           1
         0         1         2         3         4         5         6         7         8         9
 total charge-density along one line

------------------------ aborting loop because EDIFF is reached ----------------------------------------

 total charge

# of ion     s       p       d       tot
  1        0.753   0.972   0.000   1.725
  2        0.753   0.972   0.000   1.725
tot        1.507   1.944   0.000   3.451

  FORCE on cell =-STRESS in cart. coord.  units (eV):
  Direction    XX          YY          ZZ          XY          YZ          ZX
  Alpha Z     3.36229     3.36229     3.36229
  Ewald     -76.17385   -76.17385   -76.17385     0.00000     0.00000    -0.00000
  Hartree     5.05799     5.05799     5.05799     0.00000    -0.00000    -0.00000
  E(xc)     -19.65143   -19.65143   -19.65143     0.00000    -0.00000    -0.00000
  Local     -29.22459   -29.22459   -29.22459     0.00001    -0.00001    -0.00001
  n-local    70.64031    75.93210    75.18300    -1.16342    -2.37031    -0.76789
  augment   -10.65096   -10.65096   -10.65096    -0.00001     0.00001     0.00001
  Kinetic    55.07394    57.18276    58.59644    -1.13693    -3.67179    -1.06870
  Fock       -3.24403    -3.17725    -3.13489    -0.00130    -0.05159    -0.00297
  Total       0.40358     0.40358     0.40358     0.00000    -0.00000    -0.00000
  in kB      16.14585    16.14585    16.14585     0.00000    -0.00000    -0.00000

 VOLUME and BASIS-vectors are now :
  energy-cutoff  :      500.00
  volume of cell :       40.05
      direct lattice vectors                 reciprocal lattice vectors
     2.715500000  2.715500000  0.000000000     0.184128153  0.184128153  0.184128153
     2.715500000  0.000000000 -2.715500000     0.184128153 -0.184128153 -0.184128153
     0.000000000  2.715500000 -2.715500000    -0.184128153  0.184128153 -0.184128153

  length of vectors
     3.840296929  3.840296929  3.840296929     0.318919316  0.318919316  0.318919316

 FORCES acting on ions:
    Electron-Ion                     Ewald-Force                    Non-Local-Force
   -.757E-08 -.475E-08 0.475E-08   -.923E-14 -.515E-14 0.930E-14   0.364E-16 0.139E-16 0.694E-17
   0.757E-08 0.475E-08 -.475E-08   0.907E-14 0.563E-14 -.939E-14   -.399E-16 -.278E-16 0.000E+00
   0.407E-06 0.501E-06 -.183E-06   -.164E-15 0.474E-15 -.970E-16   -.347E-17 -.139E-16 0.694E-17

 POSITION                                       TOTAL-FORCE (eV/Angst)
      0.00000      0.00000      0.00000        -0.000000      0.000000      0.000000
      1.35775      1.35775     -1.35775         0.000000     -0.000000     -0.000000
    total drift:                                0.000000      0.000001     -0.000000

  FREE ENERGIE OF THE ION-ELECTRON SYSTEM (eV)
  free  energy   TOTEN  =       -12.22100391 eV

  energy  without entropy=      -12.22100391  energy(sigma->0) =      -12.22100391

 writing wavefunctions

 total charge

# of ion     s       p       d       tot
  1        0.753   0.972   0.000   1.725
  2        0.753   0.972   0.000   1.725
tot        1.507   1.944   0.000   3.451