 vasp.5.4.1 24Jun15 (build Nov 25 2015 16:01:35) complex

 executed on         CrayXC-Intel date 2016.06.26  15:06:15

 INCAR:
 POTCAR:    PAW_PBE C 08Apr2002
 POTCAR:    PAW_PBE N 08Apr2002
 POTCAR:    PAW_PBE H 15Jun2001
 POTCAR:    PAW_PBE Pb_d 06Sep2000
 POTCAR:    PAW_PBE I 08Apr2002

 POTCAR:    PAW_PBE C 08Apr2002
   VRHFIN =C: s2p2

   TITEL  = PAW_PBE C 08Apr2002
   POMASS =   12.011; ZVAL   =    4.000    mass and valenz
   ENMAX  =  400.000; ENMIN  =  300.000 eV

 POTCAR:    PAW_PBE N 08Apr2002
   VRHFIN =N: s2p3

[...]

 POTCAR:    PAW_PBE H 15Jun2001
   VRHFIN =H: ultrasoft test

   TITEL  = PAW_PBE H 15Jun2001
   POMASS =    1.000; ZVAL   =    1.000    mass and valenz
   ENMAX  =  250.000; ENMIN  =  200.000 eV

 POTCAR:    PAW_PBE Pb_d 06Sep2000
   VRHFIN =Pb:

   TITEL  = PAW_PBE Pb_d 06Sep2000
   POMASS =  207.200; ZVAL   =   14.000    mass and valenz
   ENMAX  =  237.835; ENMIN  =  178.376 eV

 POTCAR:    PAW_PBE I 08Apr2002
   VRHFIN =I : s2p5

   TITEL  = PAW_PBE I 08Apr2002
   POMASS =  126.904; ZVAL   =    7.000    mass and valenz
   ENMAX  =  175.647; ENMIN  =  131.735 eV

  PAW_PBE C 08Apr2002                   :
  PAW_PBE N 08Apr2002                   :
  PAW_PBE H 15Jun2001                   :
  PAW_PBE Pb_d 06Sep2000                :
  PAW_PBE I 08Apr2002                   :

 POSCAR: C N H Pb I
  positions in direct lattice
 exchange correlation table for  LEXCH =        8
   RHO(1)=    0.500       N(1)  =     2000
   RHO(2)=  100.500       N(2)  =     4000

 ion  position               nearest neighbor table
   1  0.197  0.250  0.229-  25 1.10  33 1.10  17 1.10   9 1.48
   2  0.697  0.250  0.229-  26 1.10  34 1.10  18 1.10  10 1.48
   3  0.197  0.750  0.229-  27 1.10  35 1.10  19 1.10  11 1.48
   4  0.697  0.750  0.229-  28 1.10  36 1.10  20 1.10  12 1.48
   5  0.197  0.250  0.729-  29 1.10  37 1.10  21 1.10  13 1.48
   6  0.697  0.250  0.729-  30 1.10  38 1.10  22 1.10  14 1.48
   7  0.197  0.750  0.729-  31 1.10  39 1.10  23 1.10  15 1.48
   8  0.697  0.750  0.729-  32 1.10  40 1.10  24 1.10  16 1.48
   9  0.307  0.250  0.270-  57 1.04  41 1.05  49 1.05   1 1.48
  10  0.803  0.250  0.278-  58 1.04  42 1.05  50 1.05   2 1.48
  11  0.303  0.750  0.278-  59 1.04  43 1.05  51 1.05   3 1.48
  12  0.807  0.750  0.270-  60 1.04  44 1.05  52 1.05   4 1.48
  13  0.303  0.250  0.778-  61 1.04  45 1.05  53 1.05   5 1.48
  14  0.807  0.250  0.770-  62 1.04  46 1.05  54 1.05   6 1.48
  15  0.307  0.750  0.770-  63 1.04  47 1.05  55 1.05   7 1.48
  16  0.803  0.750  0.778-  64 1.04  48 1.05  56 1.05   8 1.48
  17  0.202  0.250  0.143-   1 1.10
  18  0.708  0.250  0.143-   2 1.10
  19  0.208  0.750  0.143-   3 1.10
  20  0.702  0.750  0.143-   4 1.10
  21  0.208  0.250  0.643-   5 1.10
  22  0.702  0.250  0.643-   6 1.10
  23  0.202  0.750  0.643-   7 1.10
  24  0.708  0.750  0.643-   8 1.10
  25  0.155  0.322  0.257-   1 1.10
  26  0.653  0.322  0.254-   2 1.10
  27  0.153  0.822  0.254-   3 1.10
  28  0.655  0.822  0.257-   4 1.10
  29  0.153  0.322  0.754-   5 1.10
  30  0.655  0.322  0.757-   6 1.10
  31  0.155  0.822  0.757-   7 1.10
  32  0.653  0.822  0.754-   8 1.10
  33  0.156  0.177  0.257-   1 1.10
  34  0.653  0.177  0.254-   2 1.10
  35  0.153  0.677  0.254-   3 1.10
  36  0.656  0.677  0.257-   4 1.10
  37  0.153  0.177  0.754-   5 1.10
  38  0.656  0.177  0.757-   6 1.10
  39  0.156  0.677  0.757-   7 1.10
  40  0.653  0.677  0.754-   8 1.10
  41  0.349  0.318  0.245-   9 1.05
  42  0.847  0.318  0.256-  10 1.05
  43  0.347  0.818  0.256-  11 1.05
  44  0.849  0.818  0.245-  12 1.05
  45  0.347  0.318  0.756-  13 1.05
  46  0.849  0.318  0.745-  14 1.05
  47  0.349  0.818  0.745-  15 1.05
  48  0.847  0.818  0.756-  16 1.05
  49  0.349  0.182  0.245-   9 1.05
  50  0.847  0.182  0.256-  10 1.05
  51  0.347  0.682  0.256-  11 1.05
  52  0.849  0.682  0.245-  12 1.05
  53  0.347  0.182  0.756-  13 1.05
  54  0.849  0.182  0.745-  14 1.05
  55  0.349  0.682  0.745-  15 1.05
  56  0.847  0.682  0.756-  16 1.05
  57  0.309  0.250  0.352-   9 1.04
  58  0.798  0.250  0.360-  10 1.04
  59  0.298  0.750  0.360-  11 1.04
  60  0.809  0.750  0.352-  12 1.04
[...]
  82  0.942  0.250  0.012-  72 3.15  70 3.15
  83  0.442  0.750  0.012-  69 3.15  71 3.15
  84  0.958  0.750  0.011-  70 3.14  72 3.14
  85  0.442  0.250  0.512-  67 3.15  65 3.15
  86  0.958  0.250  0.511-  68 3.14  66 3.14
  87  0.458  0.750  0.511-  65 3.14  67 3.14
  88  0.942  0.750  0.512-  66 3.15  68 3.15
  89  0.216  0.509  0.461-  66 3.08  65 3.25
  90  0.716  0.491  0.461-  65 3.08  66 3.25
  91  0.216  0.991  0.461-  68 3.08  67 3.25
  92  0.716  0.009  0.461-  67 3.08  68 3.25
  93  0.216  0.491  0.961-  70 3.08  69 3.25
  94  0.716  0.509  0.961-  69 3.08  70 3.25
  95  0.216  0.009  0.961-  72 3.08  71 3.25
  96  0.716  0.991  0.961-  71 3.08  72 3.25

  LATTYP: Found a triclinic cell.
 ALAT       =    17.8238589327
 B/A-ratio  =     0.6989248630
 C/A-ratio  =     1.0156975818
 COS(alpha) =     0.0001355172
 COS(beta)  =     0.5146378593
 COS(gamma) =     0.6988877578

  Lattice vectors:

 A1 = (  -0.1406063366, -12.4576271275, -12.7466742118)
 A2 = (  -0.0011956322, -12.4575380825,   0.0007464135)
 A3 = ( -12.7162481321,  -0.0020049566, -12.8856194186)

Analysis of symmetry for initial positions (statically):
 Subroutine PRICEL returns following result:

[...]

   4 primitive cells build up your supercell.

 Routine SETGRP: Setting up the symmetry group for a
 triclinic supercell.

 Subroutine GETGRP returns: Found  1 space group operations
 (whereof  1 operations were pure point group operations)
 out of a pool of  2 trial point group operations.

The static configuration has the point symmetry C_1 .

Analysis of symmetry for dynamics (positions and initial velocities):
 Subroutine PRICEL returns following result:

  LATTYP: Found a triclinic cell.
 ALAT       =     8.8524544993
 B/A-ratio  =     1.4072411401
 C/A-ratio  =     1.0225215175
 COS(alpha) =     0.0001355172
 COS(beta)  =     0.5046167836
 COS(gamma) =     0.7037964938

  Lattice vectors:

 A1 = (   6.2890165300,   6.2297269971,   0.0687261899)
 A2 = (   0.0011956322,  12.4575380825,  -0.0007464135)
 A3 = (   6.3581240661,   0.0010024783,   6.4428097093)

   4 primitive cells build up your supercell.

 Routine SETGRP: Setting up the symmetry group for a
 triclinic supercell.

 Subroutine GETGRP returns: Found  1 space group operations
 (whereof  1 operations were pure point group operations)
 out of a pool of  2 trial point group operations.

The dynamic configuration has the point symmetry C_1 .

 Subroutine INISYM returns: Found  1 space group operations
 (whereof  1 operations are pure point group operations),
 and found     4 'primitive' translations

 KPOINTS: Automatic 3x3x3

Automatic generation of k-mesh.
Space group operators:
 irot       det(A)        alpha          n_x          n_y          n_z        tau_x        tau_y        tau_z
    1     1.000000     0.000000     1.000000     0.000000     0.000000     0.000000     0.000000     0.000000

 Subroutine IBZKPT returns following result:

 Found     14 irreducible k-points:

 Following reciprocal coordinates:
            Coordinates               Weight
  0.000000  0.000000  0.000000      1.000000
  0.333333 -0.000000 -0.000000      2.000000
  0.000000  0.333333 -0.000000      2.000000
  0.333333  0.333333  0.000000      2.000000
 -0.333333  0.333333  0.000000      2.000000
  0.000000  0.000000  0.333333      2.000000
  0.333333  0.000000  0.333333      2.000000
 -0.333333  0.000000  0.333333      2.000000
  0.000000  0.333333  0.333333      2.000000
  0.333333  0.333333  0.333333      2.000000
 -0.333333  0.333333  0.333333      2.000000
  0.000000 -0.333333  0.333333      2.000000
  0.333333 -0.333333  0.333333      2.000000
 -0.333333 -0.333333  0.333333      2.000000

 Following cartesian coordinates:
            Coordinates               Weight
  0.000000  0.000000  0.000000      1.000000
  0.026507 -0.000003 -0.000290      2.000000
 -0.000004  0.026758 -0.000000      2.000000
  0.026503  0.026755 -0.000290      2.000000
 -0.026511  0.026760  0.000290      2.000000
 -0.000287  0.000002  0.026152      2.000000
  0.026220 -0.000001  0.025862      2.000000
 -0.026794  0.000004  0.026442      2.000000
 -0.000291  0.026759  0.026152      2.000000
  0.026215  0.026757  0.025862      2.000000
 -0.026798  0.026762  0.026442      2.000000
 -0.000283 -0.026756  0.026152      2.000000
  0.026224 -0.026759  0.025862      2.000000
 -0.026790 -0.026753  0.026442      2.000000

 Subroutine IBZKPT_HF returns following result:

 Found     27 k-points in 1st BZ
 the following     27 k-points will be used (e.g. in the exchange kernel)
 Following reciprocal coordinates:   # in IRBZ
  0.000000  0.000000  0.000000    0.03703704   1 t-inv F
  0.333333 -0.000000 -0.000000    0.03703704   2 t-inv F
  0.000000  0.333333 -0.000000    0.03703704   3 t-inv F
  0.333333  0.333333  0.000000    0.03703704   4 t-inv F
 -0.333333  0.333333  0.000000    0.03703704   5 t-inv F
  0.000000  0.000000  0.333333    0.03703704   6 t-inv F
  0.333333  0.000000  0.333333    0.03703704   7 t-inv F
 -0.333333  0.000000  0.333333    0.03703704   8 t-inv F
  0.000000  0.333333  0.333333    0.03703704   9 t-inv F
  0.333333  0.333333  0.333333    0.03703704  10 t-inv F
 -0.333333  0.333333  0.333333    0.03703704  11 t-inv F
  0.000000 -0.333333  0.333333    0.03703704  12 t-inv F
  0.333333 -0.333333  0.333333    0.03703704  13 t-inv F
 -0.333333 -0.333333  0.333333    0.03703704  14 t-inv F
 -0.333333  0.000000  0.000000    0.03703704   2 t-inv T
 -0.000000 -0.333333  0.000000    0.03703704   3 t-inv T
 -0.333333 -0.333333 -0.000000    0.03703704   4 t-inv T
  0.333333 -0.333333 -0.000000    0.03703704   5 t-inv T
 -0.000000  0.000000 -0.333333    0.03703704   6 t-inv T
 -0.333333 -0.000000 -0.333333    0.03703704   7 t-inv T
  0.333333 -0.000000 -0.333333    0.03703704   8 t-inv T
 -0.000000 -0.333333 -0.333333    0.03703704   9 t-inv T
 -0.333333 -0.333333 -0.333333    0.03703704  10 t-inv T
  0.333333 -0.333333 -0.333333    0.03703704  11 t-inv T
 -0.000000  0.333333 -0.333333    0.03703704  12 t-inv T
 -0.333333  0.333333 -0.333333    0.03703704  13 t-inv T
  0.333333  0.333333 -0.333333    0.03703704  14 t-inv T

 I would recommend the setting:
   dimension x,y,z NGX =   109 NGY =  107 NGZ =  110
 SYSTEM =  MAPbI3-Cubic
 POSCAR =  C N H Pb I

 Startparameter for this run:
   NWRITE =      2    write-flag & timer
   PREC   = accura    normal or accurate (medium, high low for compatibility)
   ISTART =      0    job   : 0-new  1-cont  2-samecut
   ICHARG =      2    charge: 1-file 2-atom 10-const
   ISPIN  =      1    spin polarized calculation?
   LNONCOLLINEAR =      F non collinear calculations
   LSORBIT =      F    spin-orbit coupling
   INIWAV =      1    electr: 0-lowe 1-rand  2-diag
   LASPH  =      F    aspherical Exc in radial PAW
   METAGGA=      F    non-selfconsistent MetaGGA calc.

 Electronic Relaxation 1
   ENCUT  =  700.0 eV  51.45 Ry    7.17 a.u.  27.13 26.87 27.50*2*pi/ulx,y,z
   ENINI  =  700.0     initial cutoff
   ENAUG  =  644.9 eV  augmentation charge cutoff
[...]
     52     -13.3481      2.00000
     53     -13.3215      2.00000
     54     -13.3212      2.00000
     55     -13.3151      2.00000
     56     -13.3148      2.00000
     57     -12.2500      2.00000
     58     -12.1603      2.00000
     59     -12.1553      2.00000
     60     -12.1326      2.00000
[...]
    242       7.3541      0.00000
    243       7.4111      0.00000
    244       7.4485      0.00000
    245       7.4811      0.00000
    246       7.6065      0.00000
    247       7.6496      0.00000
    248       7.8028      0.00000
    249       7.8497      0.00000
    250       7.8938      0.00000
    251       7.9341      0.00000
    252       7.9882      0.00000
    253       8.0400      0.00000
    254       8.1572      0.00000
    255       8.2208      0.00000
    256       8.3929      0.00000

 soft charge-density along one line, spin component           1
         0         1         2         3         4         5         6         7         8         9
 total charge-density along one line

------------------------ aborting loop because EDIFF is reached ----------------------------------------

  FORCE on cell =-STRESS in cart. coord.  units (eV):
  Direction    XX          YY          ZZ          XY          YZ          ZX
  Alpha Z   370.05371   370.05371   370.05371
  Ewald   -5285.58437 -5059.97135 -5163.90514     1.19582     0.60839   472.96454
  Hartree  2691.96168  2896.15487  2858.41643     0.75635     0.39660   311.15145
  E(xc)   -1235.70035 -1235.46418 -1236.15701     0.00022     0.00070     0.31811
  Local   -4585.11790 -4988.12987 -4854.59063    -1.94728    -1.00410  -784.11717
  n-local  4270.43628  4252.69883  4250.87161     0.01782     0.00930     7.64280
  augment    94.71495    95.44017    93.21518     0.00290     0.00122    -0.20677
  Kinetic  4653.12524  4641.75289  4653.97041    -0.03088    -0.01379    -6.55863
  Fock     -968.44647  -970.75879  -970.43436     0.00135     0.00060     0.73181
  Total       5.44276     1.77629     1.44021    -0.00370    -0.00108     1.92615
  in kB       4.36673     1.42512     1.15548    -0.00297    -0.00087     1.54535

 VOLUME and BASIS-vectors are now :
  energy-cutoff  :      700.00
  volume of cell :     1996.98
      direct lattice vectors                 reciprocal lattice vectors
    12.576837428  0.001915912  0.138198793     0.079520802 -0.000007684 -0.000869670
     0.001195632 12.457538083 -0.000746413    -0.000012224  0.080272684 -0.000000427
     0.139410704  0.000089045 12.747420625    -0.000862111  0.000004784  0.078456671

  length of vectors
    12.577596840 12.457538162 12.748182927     0.079525558  0.080272685  0.078461408

 FORCES acting on ions:
    Electron-Ion                     Ewald-Force                    Non-Local-Force
   0.879E+02 0.519E-01 0.328E+02   -.953E+02 -.609E-01 -.357E+02   0.682E+01 0.816E-02 0.271E+01
   0.853E+02 0.604E-01 0.412E+02   -.925E+02 -.684E-01 -.448E+02   0.662E+01 0.733E-02 0.324E+01
   0.853E+02 0.604E-01 0.412E+02   -.925E+02 -.684E-01 -.448E+02   0.662E+01 0.733E-02 0.324E+01
   0.879E+02 0.519E-01 0.328E+02   -.953E+02 -.609E-01 -.357E+02   0.682E+01 0.816E-02 0.271E+01
   0.853E+02 0.604E-01 0.412E+02   -.925E+02 -.684E-01 -.448E+02   0.662E+01 0.733E-02 0.324E+01
   0.879E+02 0.519E-01 0.328E+02   -.953E+02 -.609E-01 -.357E+02   0.682E+01 0.816E-02 0.271E+01
   0.879E+02 0.519E-01 0.328E+02   -.953E+02 -.609E-01 -.357E+02   0.682E+01 0.816E-02 0.271E+01
   0.853E+02 0.604E-01 0.412E+02   -.925E+02 -.684E-01 -.448E+02   0.662E+01 0.733E-02 0.324E+01
   -.376E+02 -.111E+00 -.170E+02   0.367E+02 0.109E+00 0.165E+02   0.131E+01 0.254E-02 0.673E+00
   -.384E+02 -.790E-01 -.178E+02   0.376E+02 0.756E-01 0.170E+02   0.119E+01 0.332E-02 0.978E+00
   -.384E+02 -.790E-01 -.178E+02   0.376E+02 0.756E-01 0.170E+02   0.119E+01 0.332E-02 0.978E+00
   -.376E+02 -.111E+00 -.170E+02   0.367E+02 0.109E+00 0.165E+02   0.131E+01 0.254E-02 0.673E+00
   -.384E+02 -.790E-01 -.178E+02   0.376E+02 0.756E-01 0.170E+02   0.119E+01 0.332E-02 0.978E+00
   -.376E+02 -.111E+00 -.170E+02   0.367E+02 0.109E+00 0.165E+02   0.131E+01 0.254E-02 0.673E+00
   -.376E+02 -.111E+00 -.170E+02   0.367E+02 0.109E+00 0.165E+02   0.131E+01 0.254E-02 0.673E+00
   -.384E+02 -.790E-01 -.178E+02   0.376E+02 0.756E-01 0.170E+02   0.119E+01 0.332E-02 0.978E+00
   0.740E+01 0.450E-01 0.520E+02   -.731E+01 -.505E-01 -.575E+02   -.969E-01 0.575E-02 0.564E+01
   0.385E+01 0.500E-01 0.529E+02   -.334E+01 -.554E-01 -.584E+02   -.524E+00 0.562E-02 0.562E+01
   0.385E+01 0.500E-01 0.529E+02   -.334E+01 -.554E-01 -.584E+02   -.524E+00 0.562E-02 0.562E+01
   0.740E+01 0.450E-01 0.520E+02   -.731E+01 -.505E-01 -.575E+02   -.969E-01 0.575E-02 0.564E+01
   0.385E+01 0.500E-01 0.529E+02   -.334E+01 -.554E-01 -.584E+02   -.524E+00 0.562E-02 0.562E+01
   0.740E+01 0.450E-01 0.520E+02   -.731E+01 -.505E-01 -.575E+02   -.969E-01 0.575E-02 0.564E+01
   0.740E+01 0.450E-01 0.520E+02   -.731E+01 -.505E-01 -.575E+02   -.969E-01 0.575E-02 0.564E+01
   0.385E+01 0.500E-01 0.529E+02   -.334E+01 -.554E-01 -.584E+02   -.524E+00 0.562E-02 0.562E+01
   0.302E+02 -.394E+02 -.117E+02   -.329E+02 0.438E+02 0.134E+02   0.278E+01 -.458E+01 -.173E+01
   0.311E+02 -.395E+02 -.880E+01   -.339E+02 0.439E+02 0.103E+02   0.289E+01 -.459E+01 -.152E+01
   0.311E+02 -.395E+02 -.880E+01   -.339E+02 0.439E+02 0.103E+02   0.289E+01 -.459E+01 -.152E+01
   0.302E+02 -.394E+02 -.117E+02   -.329E+02 0.438E+02 0.134E+02   0.278E+01 -.458E+01 -.173E+01
   0.311E+02 -.395E+02 -.880E+01   -.339E+02 0.439E+02 0.103E+02   0.289E+01 -.459E+01 -.152E+01
   0.302E+02 -.394E+02 -.117E+02   -.329E+02 0.438E+02 0.134E+02   0.278E+01 -.458E+01 -.173E+01
   0.302E+02 -.394E+02 -.117E+02   -.329E+02 0.438E+02 0.134E+02   0.278E+01 -.458E+01 -.173E+01
   0.311E+02 -.395E+02 -.880E+01   -.339E+02 0.439E+02 0.103E+02   0.289E+01 -.459E+01 -.152E+01
   0.301E+02 0.394E+02 -.118E+02   -.328E+02 -.438E+02 0.135E+02   0.278E+01 0.458E+01 -.174E+01
   0.310E+02 0.395E+02 -.888E+01   -.338E+02 -.439E+02 0.104E+02   0.288E+01 0.459E+01 -.153E+01
   0.310E+02 0.395E+02 -.888E+01   -.338E+02 -.439E+02 0.104E+02   0.288E+01 0.459E+01 -.153E+01
   0.301E+02 0.394E+02 -.118E+02   -.328E+02 -.438E+02 0.135E+02   0.278E+01 0.458E+01 -.174E+01
   0.310E+02 0.395E+02 -.888E+01   -.338E+02 -.439E+02 0.104E+02   0.288E+01 0.459E+01 -.153E+01
   0.301E+02 0.394E+02 -.118E+02   -.328E+02 -.438E+02 0.135E+02   0.278E+01 0.458E+01 -.174E+01
   0.301E+02 0.394E+02 -.118E+02   -.328E+02 -.438E+02 0.135E+02   0.278E+01 0.458E+01 -.174E+01
   0.310E+02 0.395E+02 -.888E+01   -.338E+02 -.439E+02 0.104E+02   0.288E+01 0.459E+01 -.153E+01
   -.328E+02 -.486E+02 0.183E+02   0.361E+02 0.538E+02 -.202E+02   -.348E+01 -.547E+01 0.199E+01
   -.344E+02 -.485E+02 0.166E+02   0.379E+02 0.537E+02 -.182E+02   -.360E+01 -.547E+01 0.174E+01
   -.344E+02 -.485E+02 0.166E+02   0.379E+02 0.537E+02 -.182E+02   -.360E+01 -.547E+01 0.174E+01
   -.328E+02 -.486E+02 0.183E+02   0.361E+02 0.538E+02 -.202E+02   -.348E+01 -.547E+01 0.199E+01
   -.344E+02 -.485E+02 0.166E+02   0.379E+02 0.537E+02 -.182E+02   -.360E+01 -.547E+01 0.174E+01
   -.328E+02 -.486E+02 0.183E+02   0.361E+02 0.538E+02 -.202E+02   -.348E+01 -.547E+01 0.199E+01
   -.328E+02 -.486E+02 0.183E+02   0.361E+02 0.538E+02 -.202E+02   -.348E+01 -.547E+01 0.199E+01
   -.344E+02 -.485E+02 0.166E+02   0.379E+02 0.537E+02 -.182E+02   -.360E+01 -.547E+01 0.174E+01
   -.328E+02 0.486E+02 0.182E+02   0.362E+02 -.538E+02 -.201E+02   -.348E+01 0.547E+01 0.198E+01
   -.345E+02 0.485E+02 0.164E+02   0.379E+02 -.537E+02 -.181E+02   -.360E+01 0.547E+01 0.172E+01
   -.345E+02 0.485E+02 0.164E+02   0.379E+02 -.537E+02 -.181E+02   -.360E+01 0.547E+01 0.172E+01
   -.328E+02 0.486E+02 0.182E+02   0.362E+02 -.538E+02 -.201E+02   -.348E+01 0.547E+01 0.198E+01
   -.345E+02 0.485E+02 0.164E+02   0.379E+02 -.537E+02 -.181E+02   -.360E+01 0.547E+01 0.172E+01
   -.328E+02 0.486E+02 0.182E+02   0.362E+02 -.538E+02 -.201E+02   -.348E+01 0.547E+01 0.198E+01
   -.328E+02 0.486E+02 0.182E+02   0.362E+02 -.538E+02 -.201E+02   -.348E+01 0.547E+01 0.198E+01
   -.345E+02 0.485E+02 0.164E+02   0.379E+02 -.537E+02 -.181E+02   -.360E+01 0.547E+01 0.172E+01
   0.145E+01 -.693E-01 -.639E+02   -.121E+01 0.755E-01 0.704E+02   -.292E+00 -.648E-02 -.686E+01
   0.593E+01 -.778E-01 -.654E+02   -.623E+01 0.860E-01 0.720E+02   0.275E+00 -.852E-02 -.698E+01
   0.593E+01 -.778E-01 -.654E+02   -.623E+01 0.860E-01 0.720E+02   0.275E+00 -.852E-02 -.698E+01
   0.145E+01 -.693E-01 -.639E+02   -.121E+01 0.755E-01 0.704E+02   -.292E+00 -.648E-02 -.686E+01
[...]
   -.704E+01 -.541E-01 -.171E+02   0.685E+01 0.556E-01 0.178E+02   0.200E+00 -.108E-02 -.639E+00
   -.215E+02 -.539E-01 -.149E+02   0.215E+02 0.553E-01 0.154E+02   0.491E-01 -.107E-02 -.532E+00
   -.704E+01 -.541E-01 -.171E+02   0.685E+01 0.556E-01 0.178E+02   0.200E+00 -.108E-02 -.639E+00
   -.215E+02 -.539E-01 -.149E+02   0.215E+02 0.553E-01 0.154E+02   0.491E-01 -.107E-02 -.532E+00
   -.215E+02 -.539E-01 -.149E+02   0.215E+02 0.553E-01 0.154E+02   0.491E-01 -.107E-02 -.532E+00
   -.704E+01 -.541E-01 -.171E+02   0.685E+01 0.556E-01 0.178E+02   0.200E+00 -.108E-02 -.639E+00
   0.380E+01 0.261E+00 -.276E+01   -.324E+01 -.205E+00 0.234E+01   -.561E+00 -.408E-01 0.432E+00
   0.380E+01 -.241E+00 -.278E+01   -.324E+01 0.186E+00 0.236E+01   -.561E+00 0.395E-01 0.432E+00
   0.380E+01 -.241E+00 -.278E+01   -.324E+01 0.186E+00 0.236E+01   -.561E+00 0.395E-01 0.432E+00
   0.380E+01 0.261E+00 -.276E+01   -.324E+01 -.205E+00 0.234E+01   -.561E+00 -.408E-01 0.432E+00
   0.380E+01 -.241E+00 -.278E+01   -.324E+01 0.186E+00 0.236E+01   -.561E+00 0.395E-01 0.432E+00
   0.380E+01 0.261E+00 -.276E+01   -.324E+01 -.205E+00 0.234E+01   -.561E+00 -.408E-01 0.432E+00
   0.380E+01 0.261E+00 -.276E+01   -.324E+01 -.205E+00 0.234E+01   -.561E+00 -.408E-01 0.432E+00
   0.380E+01 -.241E+00 -.278E+01   -.324E+01 0.186E+00 0.236E+01   -.561E+00 0.395E-01 0.432E+00
   -.594E+02 -.118E+00 -.261E+02   -.133E-12 0.777E-13 -.153E-12   0.556E+02 0.110E+00 0.245E+02

 POSITION                                       TOTAL-FORCE (eV/Angst)
      2.51246      3.11343      2.94391        -0.259428     -0.000441     -0.108097
      8.79551      3.11481      3.01542        -0.249377     -0.000398     -0.128208
      2.50769      9.34262      2.94595        -0.249377     -0.000398     -0.128208
      8.80148      9.34316      3.01264        -0.259428     -0.000441     -0.108097
      2.57680      3.11389      9.32003        -0.249377     -0.000398     -0.128208
      8.87058      3.11443      9.38672        -0.259428     -0.000441     -0.108097
      2.58276      9.34224      9.31725        -0.259428     -0.000441     -0.108097
      8.86581      9.34362      9.38876        -0.249377     -0.000398     -0.128208
      3.89297      3.11491      3.48157         0.483197      0.000154      0.187454
     10.13264      3.11613      3.65397         0.461144      0.000178      0.212966
      3.84482      9.34394      3.58450         0.461144      0.000178      0.212966
     10.18198      9.34463      3.55029         0.483197      0.000154      0.187454
      3.91393      3.11521      9.95858         0.461144      0.000178      0.212966
     10.25109      3.11591      9.92438         0.483197      0.000154      0.187454
      3.96327      9.34372      9.85490         0.483197      0.000154      0.187454
     10.20295      9.34494     10.02731         0.461144      0.000178      0.212966
      2.56068      3.11235      1.84497        -0.005513      0.000474      0.417564
      8.92657      3.11373      1.92336        -0.039881      0.000436      0.421666
      2.63875      9.34155      1.85389        -0.039881      0.000436      0.421666
      8.84970      9.34207      1.91370        -0.005513      0.000474      0.417564
      2.70785      3.11282      8.22797        -0.039881      0.000436      0.421666
      8.91881      3.11335      8.28778        -0.005513      0.000474      0.417564
      2.63099      9.34116      8.21831        -0.005513      0.000474      0.417564
      8.99687      9.34255      8.29669        -0.039881      0.000436      0.421666
      1.99139      4.01552      3.29624         0.209285     -0.324601     -0.120637
      8.25120      4.01750      3.32935         0.217135     -0.328719     -0.108899
      1.96338     10.24531      3.25988         0.217135     -0.328719     -0.108899
      8.28041     10.24525      3.36497         0.209285     -0.324601     -0.120637
      2.03249      4.01659      9.63397         0.217135     -0.328719     -0.108899
      8.34952      4.01652      9.73905         0.209285     -0.324601     -0.120637
      2.06170     10.24434      9.66958         0.209285     -0.324601     -0.120637
      8.32151     10.24632      9.70269         0.217135     -0.328719     -0.108899
      1.99274      2.21126      3.29805         0.208691      0.325051     -0.121446
      8.25219      2.21217      3.33124         0.216678      0.329083     -0.109751
      1.96437      8.43998      3.26177         0.216678      0.329083     -0.109751
      8.28175      8.44098      3.36678         0.208691      0.325051     -0.121446
      2.03348      2.21125      9.63586         0.216678      0.329083     -0.109751
      8.35086      2.21226      9.74086         0.208691      0.325051     -0.121446
      2.06304      8.44007      9.67139         0.208691      0.325051     -0.121446
      8.32249      8.44098      9.70458         0.216678      0.329083     -0.109751
      4.42806      3.96022      3.17365        -0.324910     -0.495082      0.167490
     10.68790      3.96198      3.38419        -0.335901     -0.497740      0.146102
      4.40008     10.18979      3.31472        -0.335901     -0.497740      0.146102
     10.71708     10.18995      3.24238        -0.324910     -0.495082      0.167490
      4.46918      3.96106      9.68880        -0.335901     -0.497740      0.146102
     10.78619      3.96123      9.61646        -0.324910     -0.495082      0.167490
      4.49836     10.18904      9.54699        -0.324910     -0.495082      0.167490
     10.75820     10.19079      9.75753        -0.335901     -0.497740      0.146102
      4.42902      2.26955      3.17529        -0.325503      0.495390      0.166305
     10.68843      2.26995      3.38620        -0.336268      0.498193      0.144710
      4.40061      8.49776      3.31673        -0.336268      0.498193      0.144710
     10.71803      8.49927      3.24402        -0.325503      0.495390      0.166305
      4.46972      2.26903      9.69081        -0.336268      0.498193      0.144710
     10.78714      2.27055      9.61810        -0.325503      0.495390      0.166305
      4.49932      8.49836      9.54863        -0.325503      0.495390      0.166305
     10.75874      8.49876      9.75954        -0.336268      0.498193      0.144710
      3.92973      3.11589      4.52521        -0.068345     -0.000571     -0.615555
     10.08428      3.11739      4.69351        -0.011007     -0.000792     -0.606774
      3.79646      9.34520      4.62404        -0.011007     -0.000792     -0.606774
     10.21874      9.34562      4.59393        -0.068345     -0.000571     -0.615555
[...]
     11.84312      3.11595      0.28539         0.031044      0.000282      0.002412
      5.55530      9.34376      0.21592         0.031044      0.000282      0.002412
     12.04819      9.34470      0.27800         0.064612      0.000274     -0.003418
      5.62441      3.11504      6.59000         0.031044      0.000282      0.002412
     12.11730      3.11598      6.65208         0.064612      0.000274     -0.003418
      5.82948      9.34379      6.58261         0.064612      0.000274     -0.003418
     11.91343      9.34477      6.65873         0.031044      0.000282      0.002412
      2.78364      6.34541      5.90923        -0.024420      0.010504      0.033013
      9.07208      6.11393      5.97810        -0.024426     -0.010831      0.033014
      2.78426     12.34174      5.90863        -0.024426     -0.010831      0.033014
      9.07146      0.11760      5.97871        -0.024420      0.010504      0.033013
      2.85337      6.11302     12.28271        -0.024426     -0.010831      0.033014
      9.14176      6.34641     12.35204        -0.024420      0.010504      0.033013
      2.85275      0.11669     12.28332        -0.024420      0.010504      0.033013
      9.14239     12.34274     12.35144        -0.024426     -0.010831      0.033014
    total drift:                                0.008715      0.000491     -0.001953

  FREE ENERGIE OF THE ION-ELECTRON SYSTEM (eV)
  free  energy   TOTEN  =      -479.34313463 eV

  energy  without entropy=     -479.34313463  energy(sigma->0) =     -479.34313463