 vasp.5.4.1 05Feb16 (build Jun 25 2016 12:50:46) complex

 executed on           IFC91_ompi date 2016.07.02  18:17:00

 INCAR:
 POTCAR:    PAW_PBE C 08Apr2002
 POTCAR:    PAW_PBE N 08Apr2002
 POTCAR:    PAW_PBE H 15Jun2001
 POTCAR:    PAW_PBE Pb_d 06Sep2000
 POTCAR:    PAW_PBE I 08Apr2002

 POTCAR:    PAW_PBE C 08Apr2002
   VRHFIN =C: s2p2

   TITEL  = PAW_PBE C 08Apr2002
   POMASS =   12.011; ZVAL   =    4.000    mass and valenz
   ENMAX  =  400.000; ENMIN  =  300.000 eV

 POTCAR:    PAW_PBE N 08Apr2002
   VRHFIN =N: s2p3

[...]

 POTCAR:    PAW_PBE H 15Jun2001
   VRHFIN =H: ultrasoft test

   TITEL  = PAW_PBE H 15Jun2001
   POMASS =    1.000; ZVAL   =    1.000    mass and valenz
   ENMAX  =  250.000; ENMIN  =  200.000 eV

 POTCAR:    PAW_PBE Pb_d 06Sep2000
   VRHFIN =Pb:

   TITEL  = PAW_PBE Pb_d 06Sep2000
   POMASS =  207.200; ZVAL   =   14.000    mass and valenz
   ENMAX  =  237.835; ENMIN  =  178.376 eV

 POTCAR:    PAW_PBE I 08Apr2002
   VRHFIN =I : s2p5

   TITEL  = PAW_PBE I 08Apr2002
   POMASS =  126.904; ZVAL   =    7.000    mass and valenz
   ENMAX  =  175.647; ENMIN  =  131.735 eV

  PAW_PBE C 08Apr2002                   :
  PAW_PBE N 08Apr2002                   :
  PAW_PBE H 15Jun2001                   :
  PAW_PBE Pb_d 06Sep2000                :
  PAW_PBE I 08Apr2002                   :

 POSCAR: C N H Pb I
  positions in direct lattice
 exchange correlation table for  LEXCH =        8
   RHO(1)=    0.500       N(1)  =     2000
   RHO(2)=  100.500       N(2)  =     4000

 ion  position               nearest neighbor table
   1  0.198  0.250  0.229-  25 1.10  33 1.10  17 1.10   9 1.49
   2  0.696  0.250  0.229-  26 1.10  34 1.10  18 1.10  10 1.49
   3  0.196  0.750  0.229-  27 1.10  35 1.10  19 1.10  11 1.49
   4  0.698  0.750  0.229-  28 1.10  36 1.10  20 1.10  12 1.49
   5  0.196  0.250  0.729-  29 1.10  37 1.10  21 1.10  13 1.49
   6  0.698  0.250  0.729-  30 1.10  38 1.10  22 1.10  14 1.49
   7  0.198  0.750  0.729-  31 1.10  39 1.10  23 1.10  15 1.49
   8  0.696  0.750  0.729-  32 1.10  40 1.10  24 1.10  16 1.49
   9  0.309  0.250  0.264-  41 1.05  49 1.05  57 1.05   1 1.49
  10  0.800  0.250  0.284-  58 1.04  42 1.05  50 1.05   2 1.49
  11  0.300  0.750  0.284-  59 1.04  43 1.05  51 1.05   3 1.49
  12  0.809  0.750  0.264-  44 1.05  52 1.05  60 1.05   4 1.49
  13  0.300  0.250  0.784-  61 1.04  45 1.05  53 1.05   5 1.49
  14  0.809  0.250  0.764-  46 1.05  54 1.05  62 1.05   6 1.49
  15  0.309  0.750  0.764-  47 1.05  55 1.05  63 1.05   7 1.49
  16  0.800  0.750  0.784-  64 1.04  48 1.05  56 1.05   8 1.49
  17  0.197  0.250  0.142-   1 1.10
  18  0.713  0.250  0.144-   2 1.10
  19  0.213  0.750  0.144-   3 1.10
  20  0.697  0.750  0.142-   4 1.10
  21  0.213  0.250  0.644-   5 1.10
  22  0.697  0.250  0.642-   6 1.10
  23  0.197  0.750  0.642-   7 1.10
  24  0.713  0.750  0.644-   8 1.10
  25  0.157  0.322  0.259-   1 1.10
  26  0.652  0.322  0.252-   2 1.10
  27  0.152  0.822  0.252-   3 1.10
  28  0.657  0.822  0.259-   4 1.10
  29  0.152  0.322  0.752-   5 1.10
  30  0.657  0.322  0.759-   6 1.10
  31  0.157  0.822  0.759-   7 1.10
  32  0.652  0.822  0.752-   8 1.10
  33  0.157  0.177  0.259-   1 1.10
  34  0.652  0.177  0.252-   2 1.10
  35  0.152  0.677  0.252-   3 1.10
  36  0.657  0.677  0.259-   4 1.10
  37  0.152  0.177  0.752-   5 1.10
  38  0.657  0.177  0.759-   6 1.10
  39  0.157  0.677  0.759-   7 1.10
  40  0.652  0.677  0.752-   8 1.10
  41  0.351  0.318  0.237-   9 1.05
  42  0.845  0.318  0.265-  10 1.05
  43  0.345  0.818  0.265-  11 1.05
  44  0.851  0.818  0.237-  12 1.05
  45  0.345  0.318  0.765-  13 1.05
  46  0.851  0.318  0.737-  14 1.05
  47  0.351  0.818  0.737-  15 1.05
  48  0.845  0.818  0.765-  16 1.05
  49  0.351  0.182  0.237-   9 1.05
  50  0.845  0.182  0.265-  10 1.05
  51  0.345  0.682  0.265-  11 1.05
  52  0.851  0.682  0.237-  12 1.05
  53  0.345  0.182  0.765-  13 1.05
  54  0.851  0.182  0.737-  14 1.05
  55  0.351  0.682  0.737-  15 1.05
  56  0.845  0.682  0.765-  16 1.05
  57  0.317  0.250  0.346-   9 1.05
  58  0.790  0.250  0.365-  10 1.04
  59  0.290  0.750  0.365-  11 1.04
  60  0.817  0.750  0.346-  12 1.05
[...]
  82  0.929  0.250  0.013-  72 3.16  70 3.16
  83  0.429  0.750  0.013-  69 3.16  71 3.16
  84  0.970  0.750  0.011-  70 3.14  72 3.14
  85  0.429  0.250  0.513-  67 3.16  65 3.16
  86  0.970  0.250  0.511-  68 3.14  66 3.14
  87  0.470  0.750  0.511-  65 3.14  67 3.14
  88  0.929  0.750  0.513-  66 3.16  68 3.16
  89  0.216  0.523  0.461-  66 3.09  65 3.26
  90  0.716  0.477  0.461-  65 3.09  66 3.26
  91  0.216  0.977  0.461-  68 3.09  67 3.26
  92  0.716  0.023  0.461-  67 3.09  68 3.26
  93  0.216  0.477  0.961-  70 3.09  69 3.26
  94  0.716  0.523  0.961-  69 3.09  70 3.26
  95  0.216  0.023  0.961-  72 3.09  71 3.26
  96  0.716  0.977  0.961-  71 3.09  72 3.26

IMPORTANT INFORMATION: All symmetrisations will be switched off!
NOSYMM: (Re-)initialisation of all symmetry stuff for point group C_1.

 KPOINTS: Automatic 3x3x3

Automatic generation of k-mesh.
Space group operators:
 irot       det(A)        alpha          n_x          n_y          n_z        tau_x        tau_y        tau_z
    1     1.000000     0.000000     1.000000     0.000000     0.000000     0.000000     0.000000     0.000000

 Subroutine IBZKPT returns following result:

 Found     27 irreducible k-points:

 Following reciprocal coordinates:
            Coordinates               Weight
  0.000000  0.000000  0.000000      1.000000
  0.333333  0.000000  0.000000      1.000000
 -0.333333  0.000000  0.000000      1.000000
  0.000000  0.333333  0.000000      1.000000
  0.333333  0.333333  0.000000      1.000000
 -0.333333  0.333333  0.000000      1.000000
  0.000000 -0.333333  0.000000      1.000000
  0.333333 -0.333333  0.000000      1.000000
 -0.333333 -0.333333  0.000000      1.000000
  0.000000  0.000000  0.333333      1.000000
  0.333333  0.000000  0.333333      1.000000
 -0.333333  0.000000  0.333333      1.000000
  0.000000  0.333333  0.333333      1.000000
  0.333333  0.333333  0.333333      1.000000
 -0.333333  0.333333  0.333333      1.000000
  0.000000 -0.333333  0.333333      1.000000
  0.333333 -0.333333  0.333333      1.000000
 -0.333333 -0.333333  0.333333      1.000000
  0.000000  0.000000 -0.333333      1.000000
  0.333333  0.000000 -0.333333      1.000000
 -0.333333  0.000000 -0.333333      1.000000
  0.000000  0.333333 -0.333333      1.000000
  0.333333  0.333333 -0.333333      1.000000
 -0.333333  0.333333 -0.333333      1.000000
  0.000000 -0.333333 -0.333333      1.000000
  0.333333 -0.333333 -0.333333      1.000000
 -0.333333 -0.333333 -0.333333      1.000000

 Following cartesian coordinates:
            Coordinates               Weight
  0.000000  0.000000  0.000000      1.000000
  0.026507 -0.000003 -0.000290      1.000000
 -0.026507  0.000003  0.000290      1.000000
 -0.000004  0.026758 -0.000000      1.000000
  0.026503  0.026755 -0.000290      1.000000
 -0.026511  0.026760  0.000290      1.000000
  0.000004 -0.026758  0.000000      1.000000
  0.026511 -0.026760 -0.000290      1.000000
 -0.026503 -0.026755  0.000290      1.000000
 -0.000287  0.000002  0.026152      1.000000
  0.026220 -0.000001  0.025862      1.000000
 -0.026794  0.000004  0.026442      1.000000
 -0.000291  0.026759  0.026152      1.000000
  0.026215  0.026757  0.025862      1.000000
 -0.026798  0.026762  0.026442      1.000000
 -0.000283 -0.026756  0.026152      1.000000
  0.026224 -0.026759  0.025862      1.000000
 -0.026790 -0.026753  0.026442      1.000000
  0.000287 -0.000002 -0.026152      1.000000
  0.026794 -0.000004 -0.026442      1.000000
 -0.026220  0.000001 -0.025862      1.000000
  0.000283  0.026756 -0.026152      1.000000
  0.026790  0.026753 -0.026442      1.000000
 -0.026224  0.026759 -0.025862      1.000000
  0.000291 -0.026759 -0.026152      1.000000
  0.026798 -0.026762 -0.026442      1.000000
 -0.026215 -0.026757 -0.025862      1.000000

 Subroutine IBZKPT_HF returns following result:

 Found     27 k-points in 1st BZ
 the following     27 k-points will be used (e.g. in the exchange kernel)
 Following reciprocal coordinates:   # in IRBZ
  0.000000  0.000000  0.000000    0.03703704   1 t-inv F
  0.333333  0.000000  0.000000    0.03703704   2 t-inv F
 -0.333333  0.000000  0.000000    0.03703704   3 t-inv F
  0.000000  0.333333  0.000000    0.03703704   4 t-inv F
  0.333333  0.333333  0.000000    0.03703704   5 t-inv F
 -0.333333  0.333333  0.000000    0.03703704   6 t-inv F
  0.000000 -0.333333  0.000000    0.03703704   7 t-inv F
  0.333333 -0.333333  0.000000    0.03703704   8 t-inv F
 -0.333333 -0.333333  0.000000    0.03703704   9 t-inv F
  0.000000  0.000000  0.333333    0.03703704  10 t-inv F
  0.333333  0.000000  0.333333    0.03703704  11 t-inv F
 -0.333333  0.000000  0.333333    0.03703704  12 t-inv F
  0.000000  0.333333  0.333333    0.03703704  13 t-inv F
  0.333333  0.333333  0.333333    0.03703704  14 t-inv F
 -0.333333  0.333333  0.333333    0.03703704  15 t-inv F
  0.000000 -0.333333  0.333333    0.03703704  16 t-inv F
  0.333333 -0.333333  0.333333    0.03703704  17 t-inv F
 -0.333333 -0.333333  0.333333    0.03703704  18 t-inv F
  0.000000  0.000000 -0.333333    0.03703704  19 t-inv F
  0.333333  0.000000 -0.333333    0.03703704  20 t-inv F
 -0.333333  0.000000 -0.333333    0.03703704  21 t-inv F
  0.000000  0.333333 -0.333333    0.03703704  22 t-inv F
  0.333333  0.333333 -0.333333    0.03703704  23 t-inv F
 -0.333333  0.333333 -0.333333    0.03703704  24 t-inv F
  0.000000 -0.333333 -0.333333    0.03703704  25 t-inv F
  0.333333 -0.333333 -0.333333    0.03703704  26 t-inv F
 -0.333333 -0.333333 -0.333333    0.03703704  27 t-inv F

 I would recommend the setting:
   dimension x,y,z NGX =   109 NGY =  107 NGZ =  110
 SYSTEM =  MAPbI3-Cubic
 POSCAR =  C N H Pb I

 Startparameter for this run:
   NWRITE =      2    write-flag & timer
   PREC   = accura    normal or accurate (medium, high low for compatibility)
   ISTART =      0    job   : 0-new  1-cont  2-samecut
   ICHARG =      2    charge: 1-file 2-atom 10-const
   ISPIN  =      1    spin polarized calculation?
   LNONCOLLINEAR =      T non collinear calculations
   LSORBIT =      T    spin-orbit coupling
   INIWAV =      1    electr: 0-lowe 1-rand  2-diag
   LASPH  =      F    aspherical Exc in radial PAW
   METAGGA=      F    non-selfconsistent MetaGGA calc.

 Electronic Relaxation 1
   ENCUT  =  700.0 eV  51.45 Ry    7.17 a.u.  27.13 26.87 27.50*2*pi/ulx,y,z
   ENINI  =  700.0     initial cutoff
   ENAUG  =  644.9 eV  augmentation charge cutoff
   NELM   =     60;   NELMIN=  2; NELMDL= -5     # of ELM steps
   EDIFF  = 0.1E-05   stopping-criterion for ELM
   LREAL  =      F    real-space projection
   NLSPLINE    = F    spline interpolate recip. space projectors
   LCOMPAT=      F    compatible to vasp.4.4
   GGA_COMPAT  = F    GGA compatible to vasp.4.4-vasp.4.6
   LMAXPAW     = -100 max onsite density
   LMAXMIX     =    2 max onsite mixed and CHGCAR
   VOSKOWN=      0    Vosko Wilk Nusair interpolation
   ROPT   =    0.00000   0.00000   0.00000   0.00000
   ROPT   =    0.00000
 Ionic relaxation
   EDIFFG = 0.1E-04   stopping-criterion for IOM
[...]

  length of vectors
    12.577596840 12.457538162 12.748182927     0.079525558  0.080272685  0.078461408

 FORCES acting on ions:
    Electron-Ion                     Ewald-Force                    Non-Local-Force
   0.885E+02 0.456E-01 0.261E+02   -.959E+02 -.554E-01 -.287E+02   0.696E+01 0.866E-02 0.233E+01
   0.821E+02 0.667E-01 0.471E+02   -.890E+02 -.743E-01 -.511E+02   0.643E+01 0.664E-02 0.366E+01
   0.821E+02 0.667E-01 0.471E+02   -.890E+02 -.743E-01 -.511E+02   0.643E+01 0.664E-02 0.366E+01
   0.885E+02 0.456E-01 0.261E+02   -.959E+02 -.554E-01 -.287E+02   0.696E+01 0.866E-02 0.233E+01
   0.821E+02 0.667E-01 0.471E+02   -.890E+02 -.743E-01 -.511E+02   0.643E+01 0.664E-02 0.366E+01
   0.885E+02 0.456E-01 0.261E+02   -.959E+02 -.554E-01 -.287E+02   0.696E+01 0.866E-02 0.233E+01
   0.885E+02 0.456E-01 0.261E+02   -.959E+02 -.554E-01 -.287E+02   0.696E+01 0.866E-02 0.233E+01
   0.821E+02 0.667E-01 0.471E+02   -.890E+02 -.743E-01 -.511E+02   0.643E+01 0.664E-02 0.366E+01
   -.367E+02 -.131E+00 -.161E+02   0.356E+02 0.129E+00 0.160E+02   0.147E+01 0.192E-02 0.297E+00
   -.387E+02 -.513E-01 -.176E+02   0.378E+02 0.472E-01 0.168E+02   0.121E+01 0.359E-02 0.987E+00
   -.387E+02 -.513E-01 -.176E+02   0.378E+02 0.472E-01 0.168E+02   0.121E+01 0.359E-02 0.987E+00
   -.367E+02 -.131E+00 -.161E+02   0.356E+02 0.129E+00 0.160E+02   0.147E+01 0.192E-02 0.297E+00
   -.387E+02 -.513E-01 -.176E+02   0.378E+02 0.472E-01 0.168E+02   0.121E+01 0.360E-02 0.987E+00
   -.367E+02 -.131E+00 -.161E+02   0.356E+02 0.129E+00 0.160E+02   0.147E+01 0.192E-02 0.297E+00
   -.367E+02 -.131E+00 -.161E+02   0.356E+02 0.129E+00 0.160E+02   0.147E+01 0.192E-02 0.297E+00
   -.387E+02 -.513E-01 -.176E+02   0.378E+02 0.472E-01 0.168E+02   0.121E+01 0.359E-02 0.987E+00
   0.101E+02 0.403E-01 0.506E+02   -.103E+02 -.458E-01 -.558E+02   0.219E+00 0.575E-02 0.558E+01
   0.128E+01 0.527E-01 0.528E+02   -.500E+00 -.579E-01 -.580E+02   -.833E+00 0.544E-02 0.553E+01
   0.128E+01 0.527E-01 0.528E+02   -.500E+00 -.579E-01 -.580E+02   -.833E+00 0.544E-02 0.553E+01
   0.101E+02 0.403E-01 0.506E+02   -.103E+02 -.458E-01 -.558E+02   0.219E+00 0.575E-02 0.558E+01
   0.128E+01 0.527E-01 0.528E+02   -.500E+00 -.579E-01 -.580E+02   -.833E+00 0.544E-02 0.553E+01
   0.101E+02 0.403E-01 0.506E+02   -.103E+02 -.458E-01 -.558E+02   0.219E+00 0.575E-02 0.558E+01
   0.101E+02 0.403E-01 0.506E+02   -.103E+02 -.458E-01 -.558E+02   0.219E+00 0.575E-02 0.558E+01
   0.128E+01 0.527E-01 0.528E+02   -.500E+00 -.579E-01 -.580E+02   -.833E+00 0.544E-02 0.553E+01
   0.293E+02 -.392E+02 -.138E+02   -.319E+02 0.437E+02 0.156E+02   0.269E+01 -.456E+01 -.187E+01
   0.316E+02 -.395E+02 -.662E+01   -.344E+02 0.439E+02 0.794E+01   0.296E+01 -.457E+01 -.137E+01
   0.316E+02 -.395E+02 -.662E+01   -.344E+02 0.439E+02 0.794E+01   0.296E+01 -.457E+01 -.137E+01
   0.293E+02 -.392E+02 -.138E+02   -.319E+02 0.437E+02 0.156E+02   0.269E+01 -.456E+01 -.187E+01
   0.316E+02 -.395E+02 -.662E+01   -.344E+02 0.439E+02 0.794E+01   0.296E+01 -.457E+01 -.137E+01
   0.293E+02 -.392E+02 -.138E+02   -.319E+02 0.437E+02 0.156E+02   0.269E+01 -.456E+01 -.187E+01
   0.293E+02 -.392E+02 -.138E+02   -.319E+02 0.437E+02 0.156E+02   0.269E+01 -.456E+01 -.187E+01
   0.316E+02 -.395E+02 -.662E+01   -.344E+02 0.439E+02 0.794E+01   0.296E+01 -.457E+01 -.137E+01
   0.293E+02 0.393E+02 -.138E+02   -.318E+02 -.437E+02 0.157E+02   0.268E+01 0.456E+01 -.188E+01
   0.315E+02 0.395E+02 -.671E+01   -.344E+02 -.439E+02 0.803E+01   0.295E+01 0.456E+01 -.138E+01
   0.315E+02 0.395E+02 -.671E+01   -.344E+02 -.439E+02 0.803E+01   0.295E+01 0.456E+01 -.138E+01
   0.293E+02 0.393E+02 -.138E+02   -.318E+02 -.437E+02 0.157E+02   0.268E+01 0.456E+01 -.188E+01
   0.315E+02 0.395E+02 -.671E+01   -.344E+02 -.439E+02 0.803E+01   0.295E+01 0.456E+01 -.138E+01
   0.293E+02 0.393E+02 -.138E+02   -.318E+02 -.437E+02 0.157E+02   0.268E+01 0.456E+01 -.188E+01
   0.293E+02 0.393E+02 -.138E+02   -.318E+02 -.437E+02 0.157E+02   0.268E+01 0.456E+01 -.188E+01
   0.315E+02 0.395E+02 -.671E+01   -.344E+02 -.439E+02 0.803E+01   0.295E+01 0.456E+01 -.138E+01
   -.315E+02 -.486E+02 0.196E+02   0.346E+02 0.537E+02 -.217E+02   -.338E+01 -.545E+01 0.217E+01
   -.356E+02 -.483E+02 0.153E+02   0.391E+02 0.534E+02 -.167E+02   -.367E+01 -.544E+01 0.154E+01
   -.356E+02 -.483E+02 0.153E+02   0.391E+02 0.534E+02 -.167E+02   -.367E+01 -.544E+01 0.154E+01
   -.315E+02 -.486E+02 0.196E+02   0.346E+02 0.537E+02 -.217E+02   -.338E+01 -.545E+01 0.217E+01
   -.356E+02 -.483E+02 0.153E+02   0.391E+02 0.534E+02 -.167E+02   -.367E+01 -.544E+01 0.154E+01
   -.315E+02 -.486E+02 0.196E+02   0.346E+02 0.537E+02 -.217E+02   -.338E+01 -.545E+01 0.217E+01
   -.315E+02 -.486E+02 0.196E+02   0.346E+02 0.537E+02 -.217E+02   -.338E+01 -.545E+01 0.217E+01
   -.356E+02 -.483E+02 0.153E+02   0.391E+02 0.534E+02 -.167E+02   -.367E+01 -.544E+01 0.154E+01
   -.316E+02 0.485E+02 0.195E+02   0.347E+02 -.537E+02 -.216E+02   -.338E+01 0.545E+01 0.216E+01
   -.356E+02 0.483E+02 0.151E+02   0.391E+02 -.534E+02 -.166E+02   -.367E+01 0.544E+01 0.152E+01
   -.356E+02 0.483E+02 0.151E+02   0.391E+02 -.534E+02 -.166E+02   -.367E+01 0.544E+01 0.152E+01
   -.316E+02 0.485E+02 0.195E+02   0.347E+02 -.537E+02 -.216E+02   -.338E+01 0.545E+01 0.216E+01
   -.356E+02 0.483E+02 0.151E+02   0.391E+02 -.534E+02 -.166E+02   -.367E+01 0.544E+01 0.152E+01
   -.316E+02 0.485E+02 0.195E+02   0.347E+02 -.537E+02 -.216E+02   -.338E+01 0.545E+01 0.216E+01
   -.316E+02 0.485E+02 0.195E+02   0.347E+02 -.537E+02 -.216E+02   -.338E+01 0.545E+01 0.216E+01
   -.356E+02 0.483E+02 0.151E+02   0.391E+02 -.534E+02 -.166E+02   -.367E+01 0.544E+01 0.152E+01
   -.222E+01 -.603E-01 -.618E+02   0.278E+01 0.652E-01 0.679E+02   -.684E+00 -.489E-02 -.663E+01
   0.894E+01 -.806E-01 -.653E+02   -.965E+01 0.900E-01 0.718E+02   0.707E+00 -.986E-02 -.692E+01
   0.894E+01 -.806E-01 -.653E+02   -.965E+01 0.900E-01 0.718E+02   0.707E+00 -.986E-02 -.692E+01
   -.222E+01 -.603E-01 -.618E+02   0.278E+01 0.652E-01 0.679E+02   -.684E+00 -.489E-02 -.663E+01
[...]
   0.353E+01 -.536E-01 -.179E+02   -.383E+01 0.550E-01 0.186E+02   0.311E+00 -.119E-02 -.753E+00
   -.317E+02 -.527E-01 -.125E+02   0.319E+02 0.541E-01 0.129E+02   -.802E-01 -.116E-02 -.474E+00
   0.353E+01 -.536E-01 -.179E+02   -.383E+01 0.550E-01 0.186E+02   0.311E+00 -.119E-02 -.753E+00
   -.317E+02 -.527E-01 -.125E+02   0.319E+02 0.541E-01 0.129E+02   -.802E-01 -.116E-02 -.474E+00
   -.317E+02 -.527E-01 -.125E+02   0.319E+02 0.541E-01 0.129E+02   -.802E-01 -.116E-02 -.474E+00
   0.353E+01 -.536E-01 -.179E+02   -.383E+01 0.550E-01 0.186E+02   0.311E+00 -.119E-02 -.753E+00
   0.450E+01 0.118E+01 -.407E+01   -.392E+01 -.106E+01 0.368E+01   -.623E+00 -.108E+00 0.437E+00
   0.450E+01 -.117E+01 -.412E+01   -.392E+01 0.105E+01 0.373E+01   -.623E+00 0.107E+00 0.437E+00
   0.450E+01 -.117E+01 -.412E+01   -.392E+01 0.105E+01 0.373E+01   -.623E+00 0.107E+00 0.437E+00
   0.450E+01 0.118E+01 -.407E+01   -.392E+01 -.106E+01 0.368E+01   -.623E+00 -.108E+00 0.437E+00
   0.450E+01 -.117E+01 -.412E+01   -.392E+01 0.105E+01 0.373E+01   -.623E+00 0.107E+00 0.437E+00
   0.450E+01 0.118E+01 -.407E+01   -.392E+01 -.106E+01 0.368E+01   -.623E+00 -.108E+00 0.437E+00
   0.450E+01 0.118E+01 -.407E+01   -.392E+01 -.106E+01 0.368E+01   -.623E+00 -.108E+00 0.437E+00
   0.450E+01 -.117E+01 -.412E+01   -.392E+01 0.105E+01 0.373E+01   -.623E+00 0.107E+00 0.437E+00
   -.603E+02 -.114E+00 -.250E+02   -.260E-12 0.281E-12 -.115E-12   0.564E+02 0.106E+00 0.235E+02

 POSITION                                       TOTAL-FORCE (eV/Angst)
      2.51648      3.11311      2.94210        -0.185596     -0.000727     -0.132804
      8.79148      3.11512      3.01723        -0.150585     -0.000660     -0.164865
      2.50366      9.34293      2.94776        -0.150587     -0.000661     -0.164864
      8.80550      9.34284      3.01083        -0.185596     -0.000728     -0.132807
      2.57277      3.11421      9.32184        -0.150586     -0.000660     -0.164862
      8.87461      3.11412      9.38491        -0.185596     -0.000727     -0.132805
      2.58679      9.34193      9.31544        -0.185596     -0.000725     -0.132804
      8.86179      9.34394      9.39057        -0.150587     -0.000659     -0.164866
      3.92952      3.11471      3.40409         0.463468     -0.000212      0.191006
     10.09609      3.11633      3.73144         0.401690     -0.000216      0.220993
      3.80827      9.34414      3.66197         0.401688     -0.000213      0.220993
     10.21854      9.34444      3.47282         0.463471     -0.000215      0.191007
      3.87738      3.11541     10.03606         0.401689     -0.000215      0.220992
     10.28765      3.11571      9.84690         0.463473     -0.000215      0.191005
      3.99983      9.34352      9.77743         0.463474     -0.000214      0.191006
     10.16639      9.34514     10.10478         0.401686     -0.000216      0.220990
      2.50258      3.11202      1.83801         0.031944      0.000556      0.550410
      8.98467      3.11406      1.93032        -0.086780      0.000447      0.561464
      2.69685      9.34187      1.86085        -0.086780      0.000447      0.561465
      8.79160      9.34175      1.90674         0.031944      0.000556      0.550410
      2.76595      3.11314      8.23493        -0.086780      0.000447      0.561465
      8.86071      3.11303      8.28082         0.031944      0.000557      0.550410
      2.57289      9.34084      8.21135         0.031944      0.000557      0.550410
      9.05497      9.34287      8.30366        -0.086781      0.000447      0.561464
      2.01285      4.01476      3.32324         0.239871     -0.344120     -0.142745
      8.22975      4.01827      3.30236         0.260448     -0.354212     -0.107054
      1.94192     10.24608      3.23289         0.260447     -0.354212     -0.107053
      8.30187     10.24448      3.39196         0.239872     -0.344121     -0.142745
      2.01103      4.01735      9.60697         0.260448     -0.354212     -0.107053
      8.37097      4.01576      9.76605         0.239872     -0.344121     -0.142745
      2.08315     10.24357      9.69657         0.239872     -0.344121     -0.142745
      8.30005     10.24708      9.67570         0.260448     -0.354212     -0.107053
      2.01446      2.21129      3.32498         0.239080      0.344839     -0.143825
      8.23047      2.21213      3.30431         0.260073      0.354690     -0.108229
      1.94264      8.43994      3.23484         0.260073      0.354690     -0.108229
      8.30348      8.44102      3.39371         0.239081      0.344839     -0.143825
      2.01175      2.21122      9.60893         0.260073      0.354690     -0.108228
      8.37259      2.21230      9.76779         0.239080      0.344839     -0.143825
      2.08477      8.44011      9.69832         0.239080      0.344839     -0.143825
      8.30077      8.44095      9.67765         0.260073      0.354690     -0.108229
      4.44950      3.95963      3.06758        -0.362648     -0.524624      0.198690
     10.66646      3.96257      3.49027        -0.393230     -0.533090      0.138269
      4.37864     10.19038      3.42080        -0.393230     -0.533090      0.138269
     10.73851     10.18936      3.13630        -0.362647     -0.524624      0.198690
      4.44775      3.96166      9.79488        -0.393231     -0.533091      0.138269
     10.80762      3.96063      9.51039        -0.362647     -0.524623      0.198690
      4.51980     10.18844      9.44091        -0.362648     -0.524624      0.198690
     10.73676     10.19138      9.86360        -0.393229     -0.533089      0.138269
      4.45077      2.26996      3.06893        -0.363832      0.525020      0.197419
     10.66668      2.26953      3.49256        -0.393769      0.533893      0.136341
      4.37886      8.49734      3.42309        -0.393768      0.533892      0.136341
     10.73979      8.49969      3.13766        -0.363831      0.525020      0.197419
      4.44797      2.26862      9.79717        -0.393769      0.533893      0.136342
     10.80890      2.27097      9.51174        -0.363831      0.525020      0.197419
      4.52108      8.49878      9.44227        -0.363832      0.525020      0.197419
     10.73698      8.49834      9.86590        -0.393769      0.533892      0.136341
      4.03012      3.11549      4.45080        -0.149735     -0.000232     -0.746103
      9.98389      3.11779      4.76792         0.026104     -0.000878     -0.726853
      3.69607      9.34560      4.69845         0.026103     -0.000878     -0.726852
     10.31914      9.34522      4.51953        -0.149735     -0.000233     -0.746103
[...]
     11.68977      3.11597      0.29065         0.030776      0.000182     -0.019518
      5.40195      9.34378      0.22118         0.030777      0.000184     -0.019519
     12.20154      9.34469      0.27274         0.087886      0.000177     -0.023875
      5.47106      3.11505      6.59526         0.030775      0.000183     -0.019518
     12.27065      3.11597      6.64682         0.087886      0.000177     -0.023875
      5.98283      9.34378      6.57735         0.087888      0.000176     -0.023875
     11.76007      9.34478      6.66399         0.030775      0.000183     -0.019519
      2.78362      6.51974      5.90941        -0.066922      0.001573      0.068289
      9.07210      5.93960      5.97793        -0.066993     -0.001676      0.068464
      2.78428     12.16741      5.90845        -0.066995     -0.001676      0.068464
      9.07144      0.29193      5.97888        -0.066922      0.001572      0.068288
      2.85339      5.93869     12.28254        -0.066994     -0.001676      0.068464
      9.14174      6.52074     12.35222        -0.066923      0.001574      0.068288
      2.85273      0.29102     12.28349        -0.066924      0.001574      0.068288
      9.14241     12.16841     12.35126        -0.066993     -0.001679      0.068465
    total drift:                                0.003387      0.000426     -0.002377

  FREE ENERGIE OF THE ION-ELECTRON SYSTEM (eV)
  free  energy   TOTEN  =      -485.40529525 eV

  energy  without entropy=     -485.40529525  energy(sigma->0) =     -485.40529525

 Spin-Orbit-Coupling matrix elements

 Ion:    1  E_soc:     -0.0000126
 l=   1
     0.0000000    -0.0000025    -0.0000019
    -0.0000025     0.0000000    -0.0000019
    -0.0000019    -0.0000019     0.0000000
 l=   2
     0.0000000     0.0000000     0.0000000     0.0000000     0.0000000
     0.0000000     0.0000000     0.0000000     0.0000000     0.0000000
     0.0000000     0.0000000     0.0000000     0.0000000     0.0000000
     0.0000000     0.0000000     0.0000000     0.0000000     0.0000000
     0.0000000     0.0000000     0.0000000     0.0000000     0.0000000
 l=   3
     0.0000000     0.0000000     0.0000000     0.0000000     0.0000000     0.0000000     0.0000000
     0.0000000     0.0000000     0.0000000     0.0000000     0.0000000     0.0000000     0.0000000
     0.0000000     0.0000000     0.0000000     0.0000000     0.0000000     0.0000000     0.0000000
     0.0000000     0.0000000     0.0000000     0.0000000     0.0000000     0.0000000     0.0000000
     0.0000000     0.0000000     0.0000000     0.0000000     0.0000000     0.0000000     0.0000000
     0.0000000     0.0000000     0.0000000     0.0000000     0.0000000     0.0000000     0.0000000
     0.0000000     0.0000000     0.0000000     0.0000000     0.0000000     0.0000000     0.0000000

[...]

 Ion:   96  E_soc:     -0.2663164
 l=   1
     0.0000000    -0.0406482    -0.0459414
    -0.0406482     0.0000000    -0.0465851
    -0.0459414    -0.0465851     0.0000000
 l=   2
     0.0000000    -0.0000016     0.0000000    -0.0000060     0.0000153
    -0.0000016     0.0000000    -0.0000017    -0.0000019    -0.0000012
     0.0000000    -0.0000017     0.0000000     0.0000039     0.0000000
    -0.0000060    -0.0000019     0.0000039     0.0000000     0.0000097
     0.0000153    -0.0000012     0.0000000     0.0000097     0.0000000
 l=   3
     0.0000000     0.0000000     0.0000000     0.0000000     0.0000000     0.0000000     0.0000000
     0.0000000     0.0000000     0.0000000     0.0000000     0.0000000     0.0000000     0.0000000
     0.0000000     0.0000000     0.0000000     0.0000000     0.0000000     0.0000000     0.0000000
     0.0000000     0.0000000     0.0000000     0.0000000     0.0000000     0.0000000     0.0000000
     0.0000000     0.0000000     0.0000000     0.0000000     0.0000000     0.0000000     0.0000000
     0.0000000     0.0000000     0.0000000     0.0000000     0.0000000     0.0000000     0.0000000
     0.0000000     0.0000000     0.0000000     0.0000000     0.0000000     0.0000000     0.0000000