 vasp.5.4.1 24Jun15 (build Nov 12 2015 13:14:48) complex

 executed on             IFC_2016 date 2016.02.24  12:17:23

 INCAR:
 POTCAR:    PAW_PBE Si 05Jan2001

 POTCAR:    PAW_PBE Si 05Jan2001
   VRHFIN =Si: s2p2

   TITEL  = PAW_PBE Si 05Jan2001
   POMASS =   28.085; ZVAL   =    4.000    mass and valenz
   ENMAX  =  245.345; ENMIN  =  184.009 eV

  PAW_PBE Si 05Jan2001                  :

 POSCAR: Si (Madelung Handbook, 295.7K)
  positions in direct lattice
 exchange correlation table for  LEXCH =       14
   RHO(1)=    0.500       N(1)  =     2000
   RHO(2)=  100.500       N(2)  =     4000

 ion  position               nearest neighbor table
   1  0.000  0.000  0.000-   2 2.35   2 2.35   2 2.35   2 2.35
   2  0.250  0.250  0.250-   1 2.35   1 2.35   1 2.35   1 2.35

  LATTYP: Found a face centered cubic cell.
 ALAT       =     5.4310000000

  Lattice vectors:

 A1 = (   2.7155000000,   2.7155000000,   0.0000000000)
 A2 = (   2.7155000000,   0.0000000000,  -2.7155000000)
 A3 = (   0.0000000000,   2.7155000000,  -2.7155000000)

Analysis of symmetry for initial positions (statically):
 Subroutine PRICEL returns:
 Original cell was already a primitive cell.

 Routine SETGRP: Setting up the symmetry group for a
 face centered cubic supercell.

 Subroutine GETGRP returns: Found 48 space group operations
 (whereof 24 operations were pure point group operations)
 out of a pool of 48 trial point group operations.

The static configuration has the point symmetry T_d .
 The point group associated with its full space group is O_h .

Analysis of symmetry for dynamics (positions and initial velocities):
 Subroutine PRICEL returns:
 Original cell was already a primitive cell.

 Routine SETGRP: Setting up the symmetry group for a
 face centered cubic supercell.

 Subroutine GETGRP returns: Found 48 space group operations
 (whereof 24 operations were pure point group operations)
 out of a pool of 48 trial point group operations.

The dynamic configuration has the point symmetry T_d .
 The point group associated with its full space group is O_h .

 Subroutine INISYM returns: Found 48 space group operations
 (whereof 24 operations are pure point group operations),
 and found     1 'primitive' translations

 KPOINTS: Automatically generated mesh (16 to igno
  k-points in reciprocal lattice
Space group operators:
 irot       det(A)        alpha          n_x          n_y          n_z        tau_x        tau_y        tau_z
    1     1.000000     0.000001     1.000000     0.000000     0.000000     0.000000     0.000000     0.000000
    2     1.000000   120.000000    -0.577350    -0.577350     0.577350     0.000000     0.000000     0.000000
    3     1.000000   120.000000     0.577350     0.577350    -0.577350     0.000000     0.000000     0.000000
    4    -1.000000    90.000000    -1.000000     0.000000     0.000000     0.000000     0.000000     0.000000
    5    -1.000000   180.000000     0.707107     0.707107     0.000000     0.000000     0.000000     0.000000
    6    -1.000000    90.000000     0.000000     1.000000     0.000000     0.000000     0.000000     0.000000
    7     1.000000   180.000000     1.000000     0.000000     0.000000     0.000000     0.000000     0.000000
    8     1.000000   120.000000     0.577350     0.577350     0.577350     0.000000     0.000000     0.000000
    9     1.000000   120.000000    -0.577350     0.577350     0.577350     0.000000     0.000000     0.000000
   10    -1.000000    90.000000     1.000000     0.000000     0.000000     0.000000     0.000000     0.000000
   11    -1.000000    90.000000     0.000000     0.000000     1.000000     0.000000     0.000000     0.000000
   12    -1.000000   180.000000     0.707107     0.000000    -0.707107     0.000000     0.000000     0.000000
   13     1.000000   120.000000     0.577350    -0.577350    -0.577350     0.000000     0.000000     0.000000
   14     1.000000   120.000000     0.577350    -0.577350     0.577350     0.000000     0.000000     0.000000
   15     1.000000   180.000000     0.000000     0.000000     1.000000     0.000000     0.000000     0.000000
   16    -1.000000    90.000000     0.000000    -1.000000     0.000000     0.000000     0.000000     0.000000
   17    -1.000000   180.000000     0.000000    -0.707107     0.707107     0.000000     0.000000     0.000000
   18    -1.000000    90.000000     0.000000     0.000000    -1.000000     0.000000     0.000000     0.000000
   19     1.000000   120.000000    -0.577350    -0.577350    -0.577350     0.000000     0.000000     0.000000
   20     1.000000   180.000000     0.000000     1.000000     0.000000     0.000000     0.000000     0.000000
   21     1.000000   120.000000    -0.577350     0.577350    -0.577350     0.000000     0.000000     0.000000
   22    -1.000000   180.000000     0.707107    -0.707107     0.000000     0.000000     0.000000     0.000000
   23    -1.000000   180.000000     0.000000     0.707107     0.707107     0.000000     0.000000     0.000000
   24    -1.000000   180.000000     0.707107     0.000000     0.707107     0.000000     0.000000     0.000000
   25    -1.000000     0.000001     1.000000     0.000000     0.000000     0.250000     0.250000     0.250000
   26    -1.000000   120.000000    -0.577350    -0.577350     0.577350     0.250000     0.250000     0.250000
   27    -1.000000   120.000000     0.577350     0.577350    -0.577350     0.250000     0.250000     0.250000
   28     1.000000    90.000000    -1.000000     0.000000     0.000000     0.250000     0.250000     0.250000
   29     1.000000   180.000000     0.707107     0.707107     0.000000     0.250000     0.250000     0.250000
   30     1.000000    90.000000     0.000000     1.000000     0.000000     0.250000     0.250000     0.250000
   31    -1.000000   180.000000     1.000000     0.000000     0.000000     0.250000     0.250000     0.250000
   32    -1.000000   120.000000     0.577350     0.577350     0.577350     0.250000     0.250000     0.250000
   33    -1.000000   120.000000    -0.577350     0.577350     0.577350     0.250000     0.250000     0.250000
   34     1.000000    90.000000     1.000000     0.000000     0.000000     0.250000     0.250000     0.250000
   35     1.000000    90.000000     0.000000     0.000000     1.000000     0.250000     0.250000     0.250000
   36     1.000000   180.000000     0.707107     0.000000    -0.707107     0.250000     0.250000     0.250000
   37    -1.000000   120.000000     0.577350    -0.577350    -0.577350     0.250000     0.250000     0.250000
   38    -1.000000   120.000000     0.577350    -0.577350     0.577350     0.250000     0.250000     0.250000
   39    -1.000000   180.000000     0.000000     0.000000     1.000000     0.250000     0.250000     0.250000
   40     1.000000    90.000000     0.000000    -1.000000     0.000000     0.250000     0.250000     0.250000
   41     1.000000   180.000000     0.000000    -0.707107     0.707107     0.250000     0.250000     0.250000
   42     1.000000    90.000000     0.000000     0.000000    -1.000000     0.250000     0.250000     0.250000
   43    -1.000000   120.000000    -0.577350    -0.577350    -0.577350     0.250000     0.250000     0.250000
   44    -1.000000   180.000000     0.000000     1.000000     0.000000     0.250000     0.250000     0.250000
   45    -1.000000   120.000000    -0.577350     0.577350    -0.577350     0.250000     0.250000     0.250000
   46     1.000000   180.000000     0.707107    -0.707107     0.000000     0.250000     0.250000     0.250000
   47     1.000000   180.000000     0.000000     0.707107     0.707107     0.250000     0.250000     0.250000
   48     1.000000   180.000000     0.707107     0.000000     0.707107     0.250000     0.250000     0.250000

 I would recommend the setting:
   dimension x,y,z NGX =    28 NGY =   28 NGZ =   28
 SYSTEM =  Name
 POSCAR =  Si (Madelung Handbook, 295.7K)

 Startparameter for this run:
   NWRITE =      2    write-flag & timer
   PREC   = accura    normal or accurate (medium, high low for compatibility)
   ISTART =      0    job   : 0-new  1-cont  2-samecut
   ICHARG =     11    charge: 1-file 2-atom 10-const
   ISPIN  =      1    spin polarized calculation?
   LNONCOLLINEAR =      F non collinear calculations
   LSORBIT =      F    spin-orbit coupling
   INIWAV =      1    electr: 0-lowe 1-rand  2-diag
   LASPH  =      F    aspherical Exc in radial PAW
   METAGGA=      F    non-selfconsistent MetaGGA calc.

 Electronic Relaxation 1
   ENCUT  =  500.0 eV  36.75 Ry    6.06 a.u.   7.00  7.00  7.00*2*pi/ulx,y,z
   ENINI  =  500.0     initial cutoff
   ENAUG  =  322.1 eV  augmentation charge cutoff
   NELM   =     60;   NELMIN=  2; NELMDL=  0     # of ELM steps
   EDIFF  = 0.1E-05   stopping-criterion for ELM
   LREAL  =      F    real-space projection
   NLSPLINE    = F    spline interpolate recip. space projectors
   LCOMPAT=      F    compatible to vasp.4.4
   GGA_COMPAT  = T    GGA compatible to vasp.4.4-vasp.4.6
   LMAXPAW     = -100 max onsite density
   LMAXMIX     =    2 max onsite mixed and CHGCAR
   VOSKOWN=      0    Vosko Wilk Nusair interpolation
   ROPT   =    0.00000
 Ionic relaxation
   EDIFFG = -.5E-02   stopping-criterion for IOM
   NSW    =      1    number of steps for IOM
   NBLOCK =      1;   KBLOCK =      1    inner block; outer block
   IBRION =      2    ionic relax: 0-MD 1-quasi-New 2-CG
   NFREE  =      1    steps in history (QN), initial steepest desc. (CG)
   ISIF   =      3    stress and relaxation
   IWAVPR =     11    prediction:  0-non 1-charg 2-wave 3-comb
   ISYM   =      2    0-nonsym 1-usesym 2-fastsym
   LCORR  =      T    Harris-Foulkes like correction to forces

   POTIM  = 0.5000    time-step for ionic-motion
   TEIN   =    0.0    initial temperature
   TEBEG  =    0.0;   TEEND  =   0.0 temperature during run
   SMASS  =  -3.00    Nose mass-parameter (am)
   estimated Nose-frequenzy (Omega)   =  0.10E-29 period in steps =****** mass=  -0.337E-27a.u.
   SCALEE = 1.0000    scale energy and forces
   NPACO  =    256;   APACO  = 16.0  distance and # of slots for P.C.
   PSTRESS=    0.0 pullay stress

  Mass of Ions in am
   POMASS =  28.09
  Ionic Valenz
   ZVAL   =   4.00
  Atomic Wigner-Seitz radii
  virtual crystal weights
   VCA    =   1.00
   NELECT =       8.0000    total number of electrons
   NUPDOWN=      -1.0000    fix difference up-down

 DOS related values:
   EMIN   =  10.00;   EMAX   =-10.00  energy-range for DOS
   EFERMI =   0.00
   ISMEAR =     0;   SIGMA  =   0.01  broadening in eV -4-tet -1-fermi 0-gaus

 Electronic relaxation 2 (details)
   IALGO  =     38    algorithm
   LDIAG  =      T    sub-space diagonalisation (order eigenvalues)
   LSUBROT=      F    optimize rotation matrix (better conditioning)
   TURBO    =      0    0=normal 1=particle mesh
   IRESTART =      0    0=no restart 2=restart with 2 vectors
   NREBOOT  =      0    no. of reboots
   NMIN     =      0    reboot dimension
   EREF     =   0.00    reference energy to select bands
   IMIX   =      4    mixing-type and parameters
     AMIX     =   0.40;   BMIX     =  1.00
     AMIX_MAG =   1.60;   BMIX_MAG =  1.00
     AMIN     =   0.01
     WC   =   100.;   INIMIX=   1;  MIXPRE=   1;  MAXMIX= -45

[...]
   0.33333334  0.33333334 -0.33333334       0.000
   0.37500000  0.37500000 -0.37500000       0.000
   0.41666666  0.41666666 -0.41666666       0.000
   0.45833334  0.45833334 -0.45833334       0.000
   0.50000000  0.50000000 -0.50000000       0.000
   0.43750000  0.62500000 -0.43750000       0.000
   0.37500000  0.75000000 -0.37500000       0.000
   0.31250000  0.87500000 -0.31250000       0.000
   0.25000000  1.00000000 -0.25000000       0.000
   0.12500000  1.00000000 -0.37500000       0.000
   0.00000000  1.00000000 -0.50000000       0.000
   0.10000002  0.89999998 -0.50000000       0.000
   0.20000001  0.79999999 -0.49999997       0.000
   0.29999996  0.70000004 -0.50000000       0.000
   0.39999998  0.60000002 -0.50000000       0.000
   0.50000000  0.50000000 -0.50000000       0.000
   0.37500000  0.56250000 -0.56250000       0.000
   0.25000000  0.62500000 -0.62500000       0.000
   0.12500000  0.68750000 -0.68750000       0.000

 k-points in reciprocal lattice and weights: Automatically generated mesh (16 to igno
   0.00000000  0.00000000  0.00000000       0.005
   0.16666667  0.00000000  0.00000000       0.037
   0.33333333  0.00000000  0.00000000       0.037
   0.50000000  0.00000000  0.00000000       0.019
   0.16666667  0.16666667  0.00000000       0.028
   0.33333333  0.16666667  0.00000000       0.111
   0.50000000  0.16666667  0.00000000       0.111
  -0.33333333  0.16666667  0.00000000       0.111
  -0.16666667  0.16666667  0.00000000       0.056
   0.33333333  0.33333333  0.00000000       0.028
   0.50000000  0.33333333  0.00000000       0.111
  -0.33333333  0.33333333  0.00000000       0.056
   0.50000000  0.50000000  0.00000000       0.014
   0.50000000  0.33333333  0.16666667       0.111
  -0.33333333  0.33333333  0.16666667       0.111
  -0.33333333  0.50000000  0.16666667       0.056
   0.00000000  0.00000000  0.00000000       0.000
   0.05000000  0.00000000  0.05000000       0.000
   0.09999999  0.00000000  0.09999999       0.000
   0.14999999  0.00000000  0.14999999       0.000
   0.19999999  0.00000000  0.19999999       0.000
   0.24999999  0.00000000  0.24999999       0.000
   0.29999998  0.00000000  0.29999998       0.000
   0.34999999  0.00000000  0.34999999       0.000
   0.39999998  0.00000000  0.39999998       0.000
   0.44999996  0.00000000  0.44999996       0.000
   0.49999997  0.00000000  0.49999997       0.000
   0.50000000  0.08333334  0.54166669       0.000
   0.50000000  0.16666667  0.58333331       0.000
   0.50000000  0.25000000  0.62500000       0.000
   0.45833334  0.29166666  0.66666669       0.000
   0.41666666  0.33333334  0.70833331       0.000
   0.37500000  0.37500000  0.75000000       0.000
   0.34375000  0.34375000  0.68750000       0.000
   0.31250000  0.31250000  0.62500000       0.000
   0.28125000  0.28125000  0.56250000       0.000
   0.24999999  0.24999999  0.49999997       0.000
   0.21875000  0.21875000  0.43750000       0.000
   0.18749999  0.18749999  0.37499997       0.000
   0.15624999  0.15624999  0.31249997       0.000
   0.12499997  0.12499997  0.24999994       0.000
   0.09374997  0.09374997  0.18749994       0.000
   0.06250000  0.06250000  0.12500000       0.000
   0.03124997  0.03124997  0.06249994       0.000
  -0.00000003 -0.00000003 -0.00000006       0.000
   0.04166667  0.04166667  0.04166667       0.000
   0.08333334  0.08333334  0.08333334       0.000
   0.12500000  0.12500000  0.12500000       0.000
   0.16666667  0.16666667  0.16666667       0.000
   0.20833333  0.20833333  0.20833333       0.000
   0.25000000  0.25000000  0.25000000       0.000
   0.29166669  0.29166669  0.29166669       0.000
   0.33333334  0.33333334  0.33333334       0.000
   0.37500000  0.37500000  0.37500000       0.000
   0.41666666  0.41666666  0.41666666       0.000
   0.45833334  0.45833334  0.45833334       0.000
   0.50000000  0.50000000  0.50000000       0.000
   0.53125000  0.43750000  0.53125000       0.000
   0.56250000  0.37500000  0.56250000       0.000
   0.59375000  0.31250000  0.59375000       0.000
   0.62500000  0.25000000  0.62500000       0.000
   0.56250000  0.25000000  0.68750000       0.000
   0.50000000  0.25000000  0.75000000       0.000
   0.50000000  0.30000001  0.69999999       0.000
   0.50000000  0.34999999  0.64999998       0.000
   0.50000000  0.39999998  0.60000002       0.000
   0.50000000  0.44999999  0.55000001       0.000
   0.50000000  0.50000000  0.50000000       0.000
   0.46875000  0.46875000  0.56250000       0.000
   0.43750000  0.43750000  0.62500000       0.000
   0.40625000  0.40625000  0.68750000       0.000

 position of ions in fractional coordinates (direct lattice)
   0.00000000  0.00000000  0.00000000
   0.25000000  0.25000000  0.25000000

 position of ions in cartesian coordinates  (Angst):
   0.00000000  0.00000000  0.00000000
   1.35775000  1.35775000 -1.35775000

 k-point  1 :   0.0000 0.0000 0.0000  plane waves:     965
 k-point  2 :   0.1667 0.0000 0.0000  plane waves:     989
 k-point  3 :   0.3333 0.0000 0.0000  plane waves:    1008
 k-point  4 :   0.5000 0.0000 0.0000  plane waves:    1008
 k-point  5 :   0.1667 0.1667 0.0000  plane waves:     998
 k-point  6 :   0.3333 0.1667 0.0000  plane waves:    1011
 k-point  7 :   0.5000 0.1667 0.0000  plane waves:    1017
 k-point  8 :  -0.3333 0.1667 0.0000  plane waves:    1019
 k-point  9 :  -0.1667 0.1667 0.0000  plane waves:    1013
 k-point 10 :   0.3333 0.3333 0.0000  plane waves:    1018
 k-point 11 :   0.5000 0.3333 0.0000  plane waves:    1012
 k-point 12 :  -0.3333 0.3333 0.0000  plane waves:    1015
 k-point 13 :   0.5000 0.5000 0.0000  plane waves:    1034
 k-point 14 :   0.5000 0.3333 0.1667  plane waves:    1032
 k-point 15 :  -0.3333 0.3333 0.1667  plane waves:    1020
 k-point 16 :  -0.3333 0.5000 0.1667  plane waves:    1016
 k-point 17 :   0.0000 0.0000 0.0000  plane waves:     965
 k-point 18 :   0.0500 0.0000 0.0500  plane waves:     990
 k-point 19 :   0.1000 0.0000 0.1000  plane waves:    1002
 k-point 20 :   0.1500 0.0000 0.1500  plane waves:     994
 k-point 21 :   0.2000 0.0000 0.2000  plane waves:     998
 k-point 22 :   0.2500 0.0000 0.2500  plane waves:     998
 k-point 23 :   0.3000 0.0000 0.3000  plane waves:    1018
 k-point 24 :   0.3500 0.0000 0.3500  plane waves:    1026
 k-point 25 :   0.4000 0.0000 0.4000  plane waves:    1022
 k-point 26 :   0.4500 0.0000 0.4500  plane waves:    1014
 k-point 27 :   0.5000 0.0000 0.5000  plane waves:    1034
 k-point 28 :   0.5000 0.0833 0.5417  plane waves:    1011
 k-point 29 :   0.5000 0.1667 0.5833  plane waves:    1019
 k-point 30 :   0.5000 0.2500 0.6250  plane waves:    1019
 k-point 31 :   0.4583 0.2917 0.6667  plane waves:    1018
 k-point 32 :   0.4167 0.3333 0.7083  plane waves:    1017
 k-point 33 :   0.3750 0.3750 0.7500  plane waves:    1011
 k-point 34 :   0.3438 0.3438 0.6875  plane waves:    1025
 k-point 35 :   0.3125 0.3125 0.6250  plane waves:    1015
 k-point 36 :   0.2812 0.2812 0.5625  plane waves:    1015
 k-point 37 :   0.2500 0.2500 0.5000  plane waves:    1019
 k-point 38 :   0.2188 0.2188 0.4375  plane waves:    1015
 k-point 39 :   0.1875 0.1875 0.3750  plane waves:    1009
 k-point 40 :   0.1562 0.1562 0.3125  plane waves:    1007
 k-point 41 :   0.1250 0.1250 0.2500  plane waves:     997
 k-point 42 :   0.0937 0.0937 0.1875  plane waves:     997
 k-point 43 :   0.0625 0.0625 0.1250  plane waves:     995
 k-point 44 :   0.0312 0.0312 0.0625  plane waves:     981
 k-point 45 :  -0.0000-0.0000-0.0000  plane waves:     965
 k-point 46 :   0.0417 0.0417 0.0417  plane waves:     977
 k-point 47 :   0.0833 0.0833 0.0833  plane waves:     992
 k-point 48 :   0.1250 0.1250 0.1250  plane waves:     995
 k-point 49 :   0.1667 0.1667 0.1667  plane waves:     989
 k-point 50 :   0.2083 0.2083 0.2083  plane waves:    1001
 k-point 51 :   0.2500 0.2500 0.2500  plane waves:    1001
 k-point 52 :   0.2917 0.2917 0.2917  plane waves:    1011
 k-point 53 :   0.3333 0.3333 0.3333  plane waves:    1008
 k-point 54 :   0.3750 0.3750 0.3750  plane waves:    1017
 k-point 55 :   0.4167 0.4167 0.4167  plane waves:    1023
 k-point 56 :   0.4583 0.4583 0.4583  plane waves:    1026
 k-point 57 :   0.5000 0.5000 0.5000  plane waves:    1008
 k-point 58 :   0.5312 0.4375 0.5312  plane waves:    1015
 k-point 59 :   0.5625 0.3750 0.5625  plane waves:    1014
 k-point 60 :   0.5938 0.3125 0.5938  plane waves:    1017
 k-point 61 :   0.6250 0.2500 0.6250  plane waves:    1011
 k-point 62 :   0.5625 0.2500 0.6875  plane waves:    1012
 k-point 63 :   0.5000 0.2500 0.7500  plane waves:    1036
 k-point 64 :   0.5000 0.3000 0.7000  plane waves:    1022
 k-point 65 :   0.5000 0.3500 0.6500  plane waves:    1024
 k-point 66 :   0.5000 0.4000 0.6000  plane waves:    1030
 k-point 67 :   0.5000 0.4500 0.5500  plane waves:    1018
 k-point 68 :   0.5000 0.5000 0.5000  plane waves:    1008
 k-point 69 :   0.4688 0.4688 0.5625  plane waves:    1015
 k-point 70 :   0.4375 0.4375 0.6250  plane waves:    1014
 k-point 71 :   0.4062 0.4062 0.6875  plane waves:    1017

 maximum and minimum number of plane-waves per node :      1036      965

 maximum number of plane-waves:      1036
 maximum index in each direction:
   IXMAX=    7   IYMAX=    7   IZMAX=    7
   IXMIN=   -7   IYMIN=   -7   IZMIN=   -7

 WARNING: aliasing errors must be expected set NGX to  30 to avoid them
 WARNING: aliasing errors must be expected set NGY to  30 to avoid them
 WARNING: aliasing errors must be expected set NGZ to  30 to avoid them
 aliasing errors are usually negligible using standard VASP settings
 and one can safely disregard these warnings

 serial   3D FFT for wavefunctions
 parallel 3D FFT for charge:
    minimum data exchange during FFTs selected (reduces bandwidth)

 initial charge density was supplied:
 number of electron       8.0000001 magnetization
 keeping initial charge density in first step

 Maximum index for augmentation-charges         1501 (set IRDMAX)

 First call to EWALD:  gamma=   0.518
 Maximum number of real-space cells 3x 3x 3
 Maximum number of reciprocal cells 3x 3x 3

 FEWALD executed in parallel

----------------------------------------- Iteration    1(   1)  ---------------------------------------

 eigenvalue-minimisations  :  2288
 total energy-change (2. order) :-0.2633714E+01  (-0.3255786E+03)
 number of electron       8.0000001 magnetization
 augmentation part        8.0000001 magnetization

 Free energy of the ion-electron system (eV)
  alpha Z        PSCENC =         3.36228930
  Ewald energy   TEWEN  =      -228.52143995
  -Hartree energ DENC   =       -14.67338014
  -exchange      EXHF   =         0.00000000
  -V(xc)+E(xc)   XCENC  =       -16.84215720
  PAW double counting   =       872.12719759     -837.76694821
  entropy T*S    EENTRO =        -0.00059585
  eigenvalues    EBANDS =        14.53042835
  atomic energy  EATOM  =       205.15089164
  Solvation  Ediel_sol  =         0.00000000
  free energy    TOTEN  =        -2.63371447 eV

  energy without entropy =       -2.63311862  energy(sigma->0) =       -2.63341655

[...]

----------------------------------------- Iteration    1(   6)  ---------------------------------------

 eigenvalue-minimisations  :  4000
 total energy-change (2. order) :-0.4172307E-10  (-0.4197205E-10)
 number of electron       8.0000001 magnetization
 augmentation part        8.0000001 magnetization

 Free energy of the ion-electron system (eV)
  alpha Z        PSCENC =         3.36228930
  Ewald energy   TEWEN  =      -228.52143995
  -Hartree energ DENC   =       -14.67338014
  -exchange      EXHF   =         0.00000000
  -V(xc)+E(xc)   XCENC  =       -16.84215720
  PAW double counting   =       872.12719759     -837.76694821
  entropy T*S    EENTRO =        -0.00000000
  eigenvalues    EBANDS =         5.69603231
  atomic energy  EATOM  =       205.15089164
  Solvation  Ediel_sol  =         0.00000000
  free energy    TOTEN  =       -11.46751466 eV

  energy without entropy =      -11.46751466  energy(sigma->0) =      -11.46751466

 the core state eigenenergies are
   1-  1s  -1773.9257  2s   -127.9430  2p    -83.9662
   2-  1s  -1773.9257  2s   -127.9430  2p    -83.9662

 E-fermi :   5.8480     XC(G=0):  -9.5490     alpha+bet :-11.9779

 k-point     1 :       0.0000    0.0000    0.0000
  band No.  band energies     occupation
      1      -6.1942      2.00000
      2       5.7972      2.00000
      3       5.7972      2.00000
      4       5.7972      2.00000
      5       8.3104      0.00000
      6       8.3104      0.00000
      7       8.3104      0.00000
      8       9.1195      0.00000
      9      13.4809      0.00000
     10      13.4809      0.00000
     11      13.5034      0.00000
     12      16.8877      0.00000
     13      16.8877      0.00000
     14      16.8877      0.00000
     15      20.8784      0.00000
     16      28.7953      0.00000

[...]

 k-point    71 :       0.4062    0.4062    0.6875
  band No.  band energies     occupation
      1      -2.9534      2.00000
      2      -1.0712      2.00000
      3       1.6009      2.00000
      4       3.6333      2.00000
      5       7.2316      0.00000
      6      11.1353      0.00000
      7      11.8557      0.00000
      8      12.0370      0.00000
      9      14.3418      0.00000
     10      14.3475      0.00000
     11      18.8986      0.00000
     12      19.9991      0.00000
     13      20.4125      0.00000
     14      22.6285      0.00000
     15      23.3355      0.00000
     16      23.4441      0.00000

 soft charge-density along one line, spin component           1
         0         1         2         3         4         5         6         7         8         9
 total charge-density along one line

------------------------ aborting loop because EDIFF is reached ----------------------------------------

 total charge

# of ion     s       p       d       tot
  1        0.750   0.942   0.000   1.692
  2        0.750   0.942   0.000   1.692
tot        1.499   1.884   0.000   3.383

  FORCE on cell =-STRESS in cart. coord.  units (eV):
  Direction    XX          YY          ZZ          XY          YZ          ZX
  Alpha Z     3.36229     3.36229     3.36229
  Ewald     -76.17385   -76.17385   -76.17385     0.00000     0.00000    -0.00000
  Hartree     4.89108     4.89108     4.89108     0.00000    -0.00000    -0.00000
  E(xc)     -25.55844   -25.55844   -25.55844     0.00000    -0.00000    -0.00000
  Local     -29.07265   -29.07265   -29.07265     0.00001    -0.00001    -0.00001
  n-local    74.01393    79.73116    78.91474    -1.09020    -2.44510    -0.71045
  augment   -11.48829   -11.48829   -11.48829    -0.00001     0.00001     0.00001
  Kinetic    54.87764    56.36176    58.46051    -0.89961    -3.53462    -0.91368
  Fock        0.00000     0.00000     0.00000     0.00000     0.00000     0.00000
  Total       0.08006     0.08006     0.08006     0.00000     0.00000     0.00000
  in kB       3.20311     3.20311     3.20311     0.00000     0.00000     0.00000

 VOLUME and BASIS-vectors are now :
  energy-cutoff  :      500.00
  volume of cell :       40.05
      direct lattice vectors                 reciprocal lattice vectors
     2.715500000  2.715500000  0.000000000     0.184128153  0.184128153  0.184128153
     2.715500000  0.000000000 -2.715500000     0.184128153 -0.184128153 -0.184128153
     0.000000000  2.715500000 -2.715500000    -0.184128153  0.184128153 -0.184128153

  length of vectors
     3.840296929  3.840296929  3.840296929     0.318919316  0.318919316  0.318919316

 FORCES acting on ions
    electron-ion (+dipol)            ewald-force                    non-local-force                 convergence-correction
   -.162E-07 -.128E-07 0.128E-07   -.234E-14 -.182E-14 0.397E-14   -.104E-16 0.278E-16 -.694E-17   0.105E-08 0.105E-08 -.105E-08
   0.162E-07 0.128E-07 -.128E-07   0.175E-14 0.186E-14 -.406E-14   -.694E-17 -.347E-16 0.694E-17   -.105E-08 -.105E-08 0.105E-08
   -.296E-15 0.304E-13 -.775E-13   -.584E-15 0.335E-16 -.952E-16   -.173E-16 -.694E-17 0.000E+00   0.191E-14 0.267E-14 -.118E-14

 POSITION                                       TOTAL-FORCE (eV/Angst)
      0.00000      0.00000      0.00000        -0.000000     -0.000000      0.000000
      1.35775      1.35775     -1.35775         0.000000      0.000000     -0.000000
    total drift:                                0.000000      0.000000     -0.000000

  FREE ENERGIE OF THE ION-ELECTRON SYSTEM (eV)
  free  energy   TOTEN  =       -11.46751466 eV

  energy  without entropy=      -11.46751466  energy(sigma->0) =      -11.46751466

 writing wavefunctions

 total charge

# of ion     s       p       d       tot
  1        0.750   0.942   0.000   1.692
  2        0.750   0.942   0.000   1.692
tot        1.499   1.884   0.000   3.383