 vasp.5.4.1 24Jun15 (build Nov 25 2015 16:01:35) complex

 executed on         CrayXC-Intel date 2016.05.06  09:33:02

 INCAR:
 POTCAR:    PAW_PBE Cd 06Sep2000
 POTCAR:    PAW_PBE Te 08Apr2002

 POTCAR:    PAW_PBE Cd 06Sep2000
   VRHFIN =Cd : s2 d10

   TITEL  = PAW_PBE Cd 06Sep2000
   POMASS =  112.411; ZVAL   =   12.000    mass and valenz
   ENMAX  =  274.336; ENMIN  =  205.752 eV

 POTCAR:    PAW_PBE Te 08Apr2002
   VRHFIN =Te: s2p4

   TITEL  = PAW_PBE Te 08Apr2002
   POMASS =  127.600; ZVAL   =    6.000    mass and valenz
   ENMAX  =  174.982; ENMIN  =  131.236 eV

  PAW_PBE Cd 06Sep2000                  :
  PAW_PBE Te 08Apr2002                  :

 POSCAR: CdTe (ICSD, 295K, Rabadanov 2001)
  positions in direct lattice
  velocities in cartesian coordinates
 exchange correlation table for  LEXCH =       14
   RHO(1)=    0.500       N(1)  =     2000
   RHO(2)=  100.500       N(2)  =     4000

 ion  position               nearest neighbor table
   1  0.000  0.000  0.000-   2 2.81   2 2.81   2 2.81   2 2.81
   2  0.250  0.250  0.250-   1 2.81   1 2.81   1 2.81   1 2.81

  LATTYP: Found a face centered cubic cell.
 ALAT       =     6.4827000000

  Lattice vectors:

 A1 = (   3.2413500000,   3.2413500000,   0.0000000000)
 A2 = (   3.2413500000,   0.0000000000,  -3.2413500000)
 A3 = (   0.0000000000,   3.2413500000,  -3.2413500000)

Analysis of symmetry for initial positions (statically):
 Subroutine PRICEL returns:
 Original cell was already a primitive cell.

 Routine SETGRP: Setting up the symmetry group for a
 face centered cubic supercell.

 Subroutine GETGRP returns: Found 24 space group operations
 (whereof 24 operations were pure point group operations)
 out of a pool of 48 trial point group operations.

The static configuration has the point symmetry T_d .

Analysis of symmetry for dynamics (positions and initial velocities):
 Subroutine PRICEL returns:
 Original cell was already a primitive cell.

 Routine SETGRP: Setting up the symmetry group for a
 face centered cubic supercell.

 Subroutine GETGRP returns: Found 24 space group operations
 (whereof 24 operations were pure point group operations)
 out of a pool of 48 trial point group operations.

The dynamic configuration has the point symmetry T_d .

 Subroutine INISYM returns: Found 24 space group operations
 (whereof 24 operations are pure point group operations),
 and found     1 'primitive' translations

 KPOINTS: Automatic mesh

Automatic generation of k-mesh.
Space group operators:
 irot       det(A)        alpha          n_x          n_y          n_z        tau_x        tau_y        tau_z
    1     1.000000     0.000000     1.000000     0.000000     0.000000     0.000000     0.000000     0.000000
    2     1.000000   120.000000    -0.577350    -0.577350     0.577350     0.000000     0.000000     0.000000
    3     1.000000   120.000000     0.577350     0.577350    -0.577350     0.000000     0.000000     0.000000
    4    -1.000000    90.000000    -1.000000     0.000000     0.000000     0.000000     0.000000     0.000000
    5    -1.000000   180.000000     0.707107     0.707107     0.000000     0.000000     0.000000     0.000000
    6    -1.000000    90.000000     0.000000     1.000000     0.000000     0.000000     0.000000     0.000000
    7     1.000000   180.000000     1.000000     0.000000     0.000000     0.000000     0.000000     0.000000
    8     1.000000   120.000000     0.577350     0.577350     0.577350     0.000000     0.000000     0.000000
    9     1.000000   120.000000    -0.577350     0.577350     0.577350     0.000000     0.000000     0.000000
   10    -1.000000    90.000000     1.000000     0.000000     0.000000     0.000000     0.000000     0.000000
   11    -1.000000    90.000000     0.000000     0.000000     1.000000     0.000000     0.000000     0.000000
   12    -1.000000   180.000000     0.707107     0.000000    -0.707107     0.000000     0.000000     0.000000
   13     1.000000   120.000000     0.577350    -0.577350    -0.577350     0.000000     0.000000     0.000000
   14     1.000000   120.000000     0.577350    -0.577350     0.577350     0.000000     0.000000     0.000000
   15     1.000000   180.000000     0.000000     0.000000     1.000000     0.000000     0.000000     0.000000
   16    -1.000000    90.000000     0.000000    -1.000000     0.000000     0.000000     0.000000     0.000000
   17    -1.000000   180.000000     0.000000    -0.707107     0.707107     0.000000     0.000000     0.000000
   18    -1.000000    90.000000     0.000000     0.000000    -1.000000     0.000000     0.000000     0.000000
   19     1.000000   120.000000    -0.577350    -0.577350    -0.577350     0.000000     0.000000     0.000000
   20     1.000000   180.000000     0.000000     1.000000     0.000000     0.000000     0.000000     0.000000
   21     1.000000   120.000000    -0.577350     0.577350    -0.577350     0.000000     0.000000     0.000000
   22    -1.000000   180.000000     0.707107    -0.707107     0.000000     0.000000     0.000000     0.000000
   23    -1.000000   180.000000     0.000000     0.707107     0.707107     0.000000     0.000000     0.000000
   24    -1.000000   180.000000     0.707107     0.000000     0.707107     0.000000     0.000000     0.000000

 Subroutine IBZKPT returns following result:

 Found     16 irreducible k-points:

 Following reciprocal coordinates:
            Coordinates               Weight
  0.000000  0.000000  0.000000      1.000000
  0.166667  0.000000  0.000000      8.000000
  0.333333  0.000000  0.000000      8.000000
  0.500000  0.000000  0.000000      4.000000
  0.166667  0.166667  0.000000      6.000000
  0.333333  0.166667  0.000000     24.000000
  0.500000  0.166667  0.000000     24.000000
 -0.333333  0.166667  0.000000     24.000000
 -0.166667  0.166667  0.000000     12.000000
  0.333333  0.333333  0.000000      6.000000
  0.500000  0.333333  0.000000     24.000000
 -0.333333  0.333333  0.000000     12.000000
  0.500000  0.500000  0.000000      3.000000
  0.500000  0.333333  0.166667     24.000000
 -0.333333  0.333333  0.166667     24.000000
 -0.333333  0.500000  0.166667     12.000000

 Following cartesian coordinates:
            Coordinates               Weight
  0.000000  0.000000  0.000000      1.000000
  0.166667  0.166667  0.166667      8.000000
  0.333333  0.333333  0.333333      8.000000
  0.500000  0.500000  0.500000      4.000000
  0.333333  0.000000  0.000000      6.000000
  0.500000  0.166667  0.166667     24.000000
  0.666667  0.333333  0.333333     24.000000
 -0.166667 -0.500000 -0.500000     24.000000
  0.000000 -0.333333 -0.333333     12.000000
  0.666667  0.000000  0.000000      6.000000
  0.833333  0.166667  0.166667     24.000000
  0.000000 -0.666667 -0.666667     12.000000
  1.000000  0.000000  0.000000      3.000000
  0.666667  0.333333  0.000000     24.000000
 -0.166667 -0.500000 -0.833333     24.000000
  0.000000 -0.666667 -1.000000     12.000000

 I would recommend the setting:
   dimension x,y,z NGX =    33 NGY =   33 NGZ =   33
 SYSTEM =  Name
 POSCAR =  CdTe (ICSD, 295K, Rabadanov 2001)

 Startparameter for this run:
   NWRITE =      2    write-flag & timer
   PREC   = accura    normal or accurate (medium, high low for compatibility)
   ISTART =      1    job   : 0-new  1-cont  2-samecut
   ICHARG =      0    charge: 1-file 2-atom 10-const
   ISPIN  =      1    spin polarized calculation?
   LNONCOLLINEAR =      F non collinear calculations
   LSORBIT =      F    spin-orbit coupling
   INIWAV =      1    electr: 0-lowe 1-rand  2-diag
   LASPH  =      F    aspherical Exc in radial PAW
   METAGGA=      F    non-selfconsistent MetaGGA calc.

 Electronic Relaxation 1
   ENCUT  =  500.0 eV  36.75 Ry    6.06 a.u.   8.36  8.36  8.36*2*pi/ulx,y,z
   ENINI  =  500.0     initial cutoff
   ENAUG  =  456.1 eV  augmentation charge cutoff
   NELM   =     60;   NELMIN=  2; NELMDL=  0     # of ELM steps
   EDIFF  = 0.1E-05   stopping-criterion for ELM
   LREAL  =      F    real-space projection
   NLSPLINE    = F    spline interpolate recip. space projectors
   LCOMPAT=      F    compatible to vasp.4.4
   GGA_COMPAT  = T    GGA compatible to vasp.4.4-vasp.4.6
   LMAXPAW     = -100 max onsite density
   LMAXMIX     =    2 max onsite mixed and CHGCAR
   VOSKOWN=      0    Vosko Wilk Nusair interpolation
   ROPT   =    0.00000   0.00000
 Ionic relaxation
   EDIFFG = -.5E-02   stopping-criterion for IOM
   NSW    =    100    number of steps for IOM
   NBLOCK =      1;   KBLOCK =    100    inner block; outer block
   IBRION =      2    ionic relax: 0-MD 1-quasi-New 2-CG
   NFREE  =      1    steps in history (QN), initial steepest desc. (CG)
   ISIF   =      3    stress and relaxation
   IWAVPR =     11    prediction:  0-non 1-charg 2-wave 3-comb
   ISYM   =      2    0-nonsym 1-usesym 2-fastsym
   LCORR  =      T    Harris-Foulkes like correction to forces

   POTIM  = 0.5000    time-step for ionic-motion
   TEIN   =    0.0    initial temperature
   TEBEG  =    0.0;   TEEND  =   0.0 temperature during run
   SMASS  =  -3.00    Nose mass-parameter (am)
   estimated Nose-frequenzy (Omega)   =  0.10E-29 period in steps =****** mass=  -0.480E-27a.u.
   SCALEE = 1.0000    scale energy and forces
   NPACO  =    256;   APACO  = 16.0  distance and # of slots for P.C.
   PSTRESS=    0.0 pullay stress

  Mass of Ions in am
   POMASS = 112.41127.60
  Ionic Valenz
   ZVAL   =  12.00  6.00
  Atomic Wigner-Seitz radii
  virtual crystal weights
   VCA    =   1.00  1.00
   NELECT =      18.0000    total number of electrons
   NUPDOWN=      -1.0000    fix difference up-down

 DOS related values:
   EMIN   =  10.00;   EMAX   =-10.00  energy-range for DOS
   EFERMI =   0.00
   ISMEAR =     0;   SIGMA  =   0.01  broadening in eV -4-tet -1-fermi 0-gaus

 Electronic relaxation 2 (details)
   IALGO  =     38    algorithm
   LDIAG  =      T    sub-space diagonalisation (order eigenvalues)
   LSUBROT=      F    optimize rotation matrix (better conditioning)
   TURBO    =      0    0=normal 1=particle mesh
   IRESTART =      0    0=no restart 2=restart with 2 vectors
   NREBOOT  =      0    no. of reboots
   NMIN     =      0    reboot dimension
   EREF     =   0.00    reference energy to select bands
   IMIX   =      4    mixing-type and parameters
     AMIX     =   0.40;   BMIX     =  1.00
     AMIX_MAG =   1.60;   BMIX_MAG =  1.00
     AMIN     =   0.01
     WC   =   100.;   INIMIX=   1;  MIXPRE=   1;  MAXMIX= -45

 Intra band minimization:
   WEIMIN = 0.0010     energy-eigenvalue tresh-hold
   EBREAK =  0.10E-07  absolut break condition
   DEPER  =   0.30     relativ break condition

   TIME   =   0.40     timestep for ELM

  volume/ion in A,a.u.               =      34.05       229.81
  Fermi-wavevector in a.u.,A,eV,Ry     =   1.050581  1.985311 15.017042  1.103721
  Thomas-Fermi vector in A             =   2.185590

 Write flags
   LWAVE  =      T    write WAVECAR
   LCHARG =      T    write CHGCAR
   LVTOT  =      F    write LOCPOT, total local potential
   LVHAR  =      F    write LOCPOT, Hartree potential only
   LELF   =      F    write electronic localiz. function (ELF)
   LORBIT =     10    0 simple, 1 ext, 2 COOP (PROOUT)

 Dipole corrections
[...]

 old parameters found on file WAVECAR:
  energy-cutoff  :      500.00
  volume of cell :       68.11
      direct lattice vectors                 reciprocal lattice vectors
     3.241350000  3.241350000  0.000000000     0.154256714  0.154256714  0.154256714
     3.241350000  0.000000000 -3.241350000     0.154256714 -0.154256714 -0.154256714
     0.000000000  3.241350000 -3.241350000    -0.154256714  0.154256714 -0.154256714

  length of vectors

 k-points in units of 2pi/SCALE and weight: Automatic mesh
   0.00000000  0.00000000  0.00000000       0.005
   0.16666667  0.16666667  0.16666667       0.037
   0.33333333  0.33333333  0.33333333       0.037
   0.50000000  0.50000000  0.50000000       0.019
   0.33333333  0.00000000  0.00000000       0.028
   0.50000000  0.16666667  0.16666667       0.111
   0.66666667  0.33333333  0.33333333       0.111
  -0.16666667 -0.50000000 -0.50000000       0.111
   0.00000000 -0.33333333 -0.33333333       0.056
   0.66666667  0.00000000  0.00000000       0.028
   0.83333333  0.16666667  0.16666667       0.111
   0.00000000 -0.66666667 -0.66666667       0.056
   1.00000000  0.00000000  0.00000000       0.014
   0.66666667  0.33333333  0.00000000       0.111
  -0.16666667 -0.50000000 -0.83333333       0.111
   0.00000000 -0.66666667 -1.00000000       0.056

 k-points in reciprocal lattice and weights: Automatic mesh
   0.00000000  0.00000000  0.00000000       0.005
   0.16666667  0.00000000  0.00000000       0.037
   0.33333333  0.00000000  0.00000000       0.037
   0.50000000  0.00000000  0.00000000       0.019
   0.16666667  0.16666667  0.00000000       0.028
   0.33333333  0.16666667  0.00000000       0.111
   0.50000000  0.16666667  0.00000000       0.111
  -0.33333333  0.16666667  0.00000000       0.111
  -0.16666667  0.16666667  0.00000000       0.056
   0.33333333  0.33333333  0.00000000       0.028
   0.50000000  0.33333333  0.00000000       0.111
  -0.33333333  0.33333333  0.00000000       0.056
   0.50000000  0.50000000  0.00000000       0.014
   0.50000000  0.33333333  0.16666667       0.111
  -0.33333333  0.33333333  0.16666667       0.111
  -0.33333333  0.50000000  0.16666667       0.056

 position of ions in fractional coordinates (direct lattice)
   0.00000000  0.00000000  0.00000000
   0.25000000  0.25000000  0.25000000

 position of ions in cartesian coordinates  (Angst):
   0.00000000  0.00000000  0.00000000
   1.62067500  1.62067500 -1.62067500

 k-point  1 :   0.0000 0.0000 0.0000  plane waves:    1759
 k-point  2 :   0.1667 0.0000 0.0000  plane waves:    1747
 k-point  3 :   0.3333 0.0000 0.0000  plane waves:    1730
 k-point  4 :   0.5000 0.0000 0.0000  plane waves:    1718
 k-point  5 :   0.1667 0.1667 0.0000  plane waves:    1736
 k-point  6 :   0.3333 0.1667 0.0000  plane waves:    1729
 k-point  7 :   0.5000 0.1667 0.0000  plane waves:    1739
 k-point  8 :  -0.3333 0.1667 0.0000  plane waves:    1732
 k-point  9 :  -0.1667 0.1667 0.0000  plane waves:    1735
 k-point 10 :   0.3333 0.3333 0.0000  plane waves:    1728
 k-point 11 :   0.5000 0.3333 0.0000  plane waves:    1723
 k-point 12 :  -0.3333 0.3333 0.0000  plane waves:    1726
 k-point 13 :   0.5000 0.5000 0.0000  plane waves:    1724
 k-point 14 :   0.5000 0.3333 0.1667  plane waves:    1724
 k-point 15 :  -0.3333 0.3333 0.1667  plane waves:    1726
 k-point 16 :  -0.3333 0.5000 0.1667  plane waves:    1722

 maximum and minimum number of plane-waves per node :      1759     1718

 maximum number of plane-waves:      1759
 maximum index in each direction:
   IXMAX=    8   IYMAX=    8   IZMAX=    8
   IXMIN=   -8   IYMIN=   -8   IZMIN=   -8

 NGX is ok and might be reduce to  34
 NGY is ok and might be reduce to  34
 NGZ is ok and might be reduce to  34

 serial   3D FFT for wavefunctions
 parallel 3D FFT for charge:
    minimum data exchange during FFTs selected (reduces bandwidth)

 Broyden mixing: mesh for mixing (old mesh)
   NGX = 17   NGY = 17   NGZ = 17
  (NGX  = 72   NGY  = 72   NGZ  = 72)
  gives a total of   4913 points

 charge density for first step will be calculated from the start-wavefunctions

 Maximum index for augmentation-charges         1676 (set IRDMAX)

 initial charge from wavefunction
 First call to EWALD:  gamma=   0.434
 Maximum number of real-space cells 3x 3x 3
 Maximum number of reciprocal cells 3x 3x 3

 FEWALD executed in parallel

----------------------------------------- Iteration    1(   1)  ---------------------------------------

 eigenvalue-minimisations  :   768
 total energy-change (2. order) :-0.5498054E+01  (-0.2923393E-01)
 number of electron      17.9999997 magnetization
 augmentation part        4.5295857 magnetization

 Broyden mixing:
  rms(total) = 0.15625E+00    rms(broyden)= 0.15625E+00
  rms(prec ) = 0.21200E+00
  weight for this iteration     100.00

 Free energy of the ion-electron system (eV)
  alpha Z        PSCENC =        50.17222034
  Ewald energy   TEWEN  =     -1044.83138452
  -Hartree energ DENC   =      -505.45411455
  -exchange      EXHF   =         0.00000000
  -V(xc)+E(xc)   XCENC  =       -20.58149771
  PAW double counting   =      1708.81083112    -1637.82770868
  entropy T*S    EENTRO =        -0.00000000
  eigenvalues    EBANDS =       -71.99181536
  atomic energy  EATOM  =      1516.20541573
  Solvation  Ediel_sol  =         0.00000000
  free energy    TOTEN  =        -5.49805363 eV

  energy without entropy =       -5.49805363  energy(sigma->0) =       -5.49805363

[...]

 eigenvalue-minimisations  :   768
 total energy-change (2. order) : 0.1482025E-01  (-0.6104605E-02)
 number of electron      17.9999996 magnetization
 augmentation part        4.5570141 magnetization

[...]

 eigenvalues of (default mixing * dielectric matrix)
  average eigenvalue GAMMA=   1.2542
  1.2542

[...]

 the core state eigenenergies are
   1-  1s -26513.8919  2s  -3931.0631  2p  -3526.3197  3s   -727.8864  3p   -595.1758
       3d   -387.6324  4s    -99.9747  4p    -61.0186
   2-  1s -31612.9794  2s  -4840.5622  2p  -4343.9576  3s   -956.7818  3p   -795.4395
       3d   -551.6894  4s   -156.2923  4p   -106.3323  4d    -33.6591

 E-fermi :   2.3072     XC(G=0):  -8.7758     alpha+bet : -7.4227

 k-point     1 :       0.0000    0.0000    0.0000
  band No.  band energies     occupation
      1      -8.9994      2.00000
      2      -6.0496      2.00000
      3      -6.0496      2.00000
      4      -6.0496      2.00000
      5      -5.7855      2.00000
      6      -5.7855      2.00000
      7       2.2080      2.00000
      8       2.2080      2.00000
      9       2.2080      2.00000
     10       2.8657      0.00000
     11       6.7511      0.00000
     12       6.7511      0.00000
     13       6.7511      0.00000
     14       9.5046      0.00000
     15      11.5492      0.00000
     16      11.5492      0.00000
     17      12.1965      0.00000
     18      12.1965      0.00000
     19      12.1965      0.00000
     20      14.5173      0.00000
     21      21.9225      0.00000
     22      21.9225      0.00000
     23      21.9225      0.00000
     24      22.9175      0.00000

[...]

 soft charge-density along one line, spin component           1
         0         1         2         3         4         5         6         7         8         9
 total charge-density along one line

------------------------ aborting loop because EDIFF is reached ----------------------------------------

 total charge

# of ion     s       p       d       tot
  1        0.473   0.319   9.527  10.319
  2        1.351   2.047   0.021   3.420
tot        1.824   2.367   9.549  13.739

  FORCE on cell =-STRESS in cart. coord.  units (eV):
  Direction    XX          YY          ZZ          XY          YZ          ZX
  Alpha Z    50.17222    50.17222    50.17222
  Ewald    -348.27726  -348.27726  -348.27726     0.00000     0.00000     0.00000
  Hartree   167.42497   167.42497   167.42497     0.00000    -0.00000    -0.00000
  E(xc)     -86.29318   -86.29318   -86.29318    -0.00000     0.00000     0.00000
  Local     -17.80675   -17.80675   -17.80675     0.00001    -0.00001    -0.00001
  n-local    22.60576    27.93206    27.04450    -1.75786    -3.05486    -1.14696
  augment     6.27259     6.27259     6.27259    -0.00001     0.00001     0.00001
  Kinetic   200.33732   203.88180   204.10803    -1.62882    -3.09614    -1.23696
  Fock        0.00000     0.00000     0.00000     0.00000     0.00000     0.00000
  Total       0.12908     0.12908     0.12908     0.00000     0.00000    -0.00000
  in kB       3.03651     3.03651     3.03651     0.00000     0.00000    -0.00000

 VOLUME and BASIS-vectors are now :
  energy-cutoff  :      500.00
  volume of cell :       68.11
      direct lattice vectors                 reciprocal lattice vectors
     3.241350000  3.241350000  0.000000000     0.154256714  0.154256714  0.154256714
     3.241350000  0.000000000 -3.241350000     0.154256714 -0.154256714 -0.154256714
     0.000000000  3.241350000 -3.241350000    -0.154256714  0.154256714 -0.154256714

[...]

 FORCES acting on ions
    electron-ion (+dipol)            ewald-force                    non-local-force                 convergence-correction
   -.329E-06 -.330E-06 0.330E-06   -.744E-14 -.454E-14 0.998E-14   0.173E-16 0.173E-16 -.139E-16   -.817E-09 -.817E-09 0.817E-09
   0.158E-06 0.164E-06 -.164E-06   0.759E-14 0.606E-14 -.102E-13   -.711E-16 -.416E-16 0.125E-15   0.636E-09 0.636E-09 -.636E-09
   -.172E-06 -.166E-06 0.166E-06   0.152E-15 0.152E-14 -.238E-15   -.538E-16 -.243E-16 0.111E-15   -.181E-09 -.181E-09 0.181E-09

 POSITION                                       TOTAL-FORCE (eV/Angst)
      0.00000      0.00000      0.00000        -0.000000     -0.000000     -0.000000
      1.62068      1.62068     -1.62068         0.000000      0.000000      0.000000
    total drift:                               -0.000000     -0.000000      0.000000

  FREE ENERGIE OF THE ION-ELECTRON SYSTEM (eV)
  free  energy   TOTEN  =        -5.48257931 eV

  energy  without entropy=       -5.48257931  energy(sigma->0) =       -5.48257931

[...]

 d Force = 0.0000000E+00[ 0.000E+00, 0.000E+00]  d Energy = 0.4482968E-03-0.448E-03
 d Force = 0.0000000E+00[ 0.000E+00, 0.000E+00]  d Ewald  =-0.3243164E+01 0.324E+01

 Steepest descent step on ions:
 trial-energy change:   -0.000448  1 .order   -0.000469   -0.001206    0.000267
  (g-gl).g = 0.121E-02      g.g   = 0.121E-02  gl.gl    = 0.000E+00
 g(Force)  = 0.502E-46   g(Stress)= 0.121E-02 ortho     = 0.000E+00
 gamma     =   0.00000
 trial     =   1.00000
 opt step  =   0.80517  (harmonic =   0.81856) maximal distance =0.00000000
 next E    =    -5.483054   (d E  =  -0.00047)

 FEWALD executed in parallel

[...]

 eigenvalue-minimisations  :   984
 total energy-change (2. order) : 0.5735499E-05  (-0.1952356E-05)
 number of electron      18.0000000 magnetization
 augmentation part        4.5618159 magnetization

 Broyden mixing:
  rms(total) = 0.10876E-02    rms(broyden)= 0.10876E-02
  rms(prec ) = 0.12535E-02
  weight for this iteration     100.00

 eigenvalues of (default mixing * dielectric matrix)
  average eigenvalue GAMMA=   1.4460
  2.1647  0.8314  1.3420

[...]

----------------------------------------- Iteration    3(   5)  ---------------------------------------

 eigenvalue-minimisations  :   744
 total energy-change (2. order) :-0.2938411E-06  (-0.6809796E-07)
 number of electron      18.0000000 magnetization
 augmentation part        4.5618159 magnetization

 Free energy of the ion-electron system (eV)
  alpha Z        PSCENC =        49.79675357
  Ewald energy   TEWEN  =     -1042.21850332
  -Hartree energ DENC   =      -503.73454487
  -exchange      EXHF   =         0.00000000
  -V(xc)+E(xc)   XCENC  =       -20.71025709
  PAW double counting   =      1708.51740577    -1637.26219597
  entropy T*S    EENTRO =        -0.00000000
  eigenvalues    EBANDS =       -76.07712799
  atomic energy  EATOM  =      1516.20541573
  Solvation  Ediel_sol  =         0.00000000
  free energy    TOTEN  =        -5.48305417 eV

  energy without entropy =       -5.48305417  energy(sigma->0) =       -5.48305417

 the core state eigenenergies are
   1-  1s -26513.9457  2s  -3931.1149  2p  -3526.3717  3s   -727.9374  3p   -595.2268
       3d   -387.6834  4s   -100.0243  4p    -61.0681
   2-  1s -31613.0422  2s  -4840.6237  2p  -4344.0193  3s   -956.8411  3p   -795.4989
       3d   -551.7490  4s   -156.3479  4p   -106.3875  4d    -33.7130

 E-fermi :   2.2387     XC(G=0):  -8.7427     alpha+bet : -7.3671

[...]

 k-point    16 :      -0.3333    0.5000    0.1667
  band No.  band energies     occupation
      1      -8.5056      2.00000
      2      -5.9616      2.00000
      3      -5.9607      2.00000
      4      -5.8807      2.00000
      5      -5.8204      2.00000
      6      -5.2976      2.00000
      7      -2.0828      2.00000
      8      -0.0726      2.00000
      9       0.0198      2.00000
     10       5.7841      0.00000
     11       5.8347      0.00000
     12       8.7319      0.00000
     13       9.0135      0.00000
     14      11.6077      0.00000
     15      13.1505      0.00000
     16      13.3876      0.00000
     17      13.5103      0.00000
     18      15.9028      0.00000
     19      16.7590      0.00000
     20      17.2464      0.00000
     21      17.2774      0.00000
     22      17.3969      0.00000
     23      17.5589      0.00000
     24      20.3008      0.00000

 soft charge-density along one line, spin component           1
         0         1         2         3         4         5         6         7         8         9
 total charge-density along one line

------------------------ aborting loop because EDIFF is reached ----------------------------------------

[...]

  FORCE on cell =-STRESS in cart. coord.  units (eV):
  Direction    XX          YY          ZZ          XY          YZ          ZX
  Alpha Z    49.79675    49.79675    49.79675
  Ewald    -347.40630  -347.40630  -347.40630     0.00000    -0.00000     0.00000
  Hartree   167.91031   167.91031   167.91031     0.00000     0.00000     0.00000
  E(xc)     -86.25835   -86.25835   -86.25835    -0.00000    -0.00000    -0.00000
  Local     -18.70312   -18.70312   -18.70312     0.00001    -0.00002    -0.00001
  n-local    22.42936    27.78072    26.88577    -1.76204    -3.05442    -1.15074
  augment     6.25899     6.25899     6.25900    -0.00001     0.00001     0.00001
  Kinetic   200.24229   203.82707   204.03360    -1.63235    -3.09186    -1.23800
  Fock        0.00000     0.00000     0.00000     0.00000     0.00000     0.00000
  Total      -0.00211    -0.00211    -0.00211     0.00000     0.00000    -0.00000
  in kB      -0.04930    -0.04930    -0.04930     0.00000     0.00000    -0.00000

 VOLUME and BASIS-vectors are now :
  energy-cutoff  :      500.00
  volume of cell :       68.62
      direct lattice vectors                 reciprocal lattice vectors
     3.249476187  3.249476187 -0.000000000     0.153870954  0.153870954  0.153870954
     3.249476187  0.000000000 -3.249476187     0.153870954 -0.153870954 -0.153870954
     0.000000000  3.249476187 -3.249476187    -0.153870954  0.153870954 -0.153870954

  length of vectors
     4.595453294  4.595453294  4.595453294     0.266512310  0.266512310  0.266512310

 FORCES acting on ions
    electron-ion (+dipol)            ewald-force                    non-local-force                 convergence-correction
   0.523E-06 0.285E-06 0.102E-05   0.149E-14 0.118E-14 0.190E-14   0.278E-16 0.208E-16 -.312E-16   -.224E-07 -.224E-07 -.286E-07
   -.413E-06 -.178E-05 -.195E-05   -.212E-14 -.110E-14 -.229E-14   0.224E-15 0.111E-15 -.180E-15   -.817E-08 -.818E-08 -.780E-08
   0.110E-06 -.150E-05 -.934E-06   -.632E-15 0.788E-16 -.392E-15   0.252E-15 0.132E-15 -.212E-15   -.306E-07 -.306E-07 -.364E-07

 POSITION                                       TOTAL-FORCE (eV/Angst)
     -0.00000     -0.00000     -0.00000        -0.000000     -0.000000      0.000000
      1.62474      1.62474     -1.62474         0.000000      0.000000     -0.000000
    total drift:                                0.000000     -0.000002     -0.000001

  FREE ENERGIE OF THE ION-ELECTRON SYSTEM (eV)
  free  energy   TOTEN  =        -5.48305417 eV

  energy  without entropy=       -5.48305417  energy(sigma->0) =       -5.48305417

 d Force = 0.0000000E+00[ 0.000E+00, 0.000E+00]  d Energy = 0.2657190E-04-0.266E-04
 d Force = 0.0000000E+00[ 0.000E+00, 0.000E+00]  d Ewald  = 0.6302831E+00-0.630E+00

 reached required accuracy - stopping structural energy minimisation
 writing wavefunctions

 total charge

# of ion     s       p       d       tot
  1        0.471   0.315   9.528  10.314
  2        1.352   2.044   0.021   3.416
tot        1.823   2.359   9.548  13.730