 vasp.5.3.5 31Mar14 (build Apr 15 2015 10:45:18) complex

 executed on             LinuxIFC date 2016.02.22  13:36:08

 INCAR:
 POTCAR:   PAW Cu_pv 19Apr2000
 POTCAR:   PAW Zn 03Mar1998
 POTCAR:   PAW Sn_d 09Feb1998
 POTCAR:   PAW S 21Jan2003

 POTCAR:   PAW Cu_pv 19Apr2000
   VRHFIN =Cu: d10 p1

   TITEL  = PAW Cu_pv 19Apr2000
   POMASS =   63.546; ZVAL   =   17.000    mass and valenz
   ENMAX  =  368.406; ENMIN  =  276.305 eV
   QCUT   =   -5.204; QGAM   =   10.407    optimization parameters

   Description
     l     E      TYP  RCUT    TYP  RCUT
     1   .000     23  1.700
     1  -.100     23  1.700
     2   .000     23  2.000
     2   .000     23  2.000
     0   .000     23  1.800
     0   .000     23  1.800
     3   .000      7   .000

 POTCAR:   PAW Zn 03Mar1998
   VRHFIN =Zn: d10 p2

   TITEL  = PAW Zn 03Mar1998
   POMASS =   65.390; ZVAL   =   12.000    mass and valenz
   ENMAX  =  276.847; ENMIN  =  207.636 eV
   QCUT   =   -4.511; QGAM   =    9.022    optimization parameters

[...]

 POTCAR:   PAW Sn_d 09Feb1998
   VRHFIN =Sn: s2p2

   TITEL  = PAW Sn_d 09Feb1998
   POMASS =  118.710; ZVAL   =   14.000    mass and valenz
   ENMAX  =  241.107; ENMIN  =  180.830 eV
   QCUT   =   -4.210; QGAM   =    8.419    optimization parameters

[...]

 POTCAR:   PAW S 21Jan2003
   VRHFIN =S : s2p4

   TITEL  = PAW S 21Jan2003
   POMASS =   32.066; ZVAL   =    6.000    mass and valenz
   ENMAX  =  280.000; ENMIN  =  193.952 eV
   QCUT   =   -4.360; QGAM   =    8.719    optimization parameters

   Description
     l     E      TYP  RCUT    TYP  RCUT
     0   .000     23  1.900
     0   .000     23  1.900
     1   .000     23  1.900
     1   .000     23  1.900
     2   .000      7  1.900

 PAW Cu_pv 19Apr2000                    :
 PAW Zn 03Mar1998                       :
 PAW Sn_d 09Feb1998                     :
 PAW S 21Jan2003                        :

 POSCAR: Cu2ZnSnS4 (LaFond 2014, 293 K)
  positions in direct lattice
  velocities in cartesian coordinates
 exchange correlation table for  LEXCH =        2
   RHO(1)=    0.500       N(1)  =     2000
   RHO(2)=  100.500       N(2)  =     4000

 ion  position               nearest neighbor table
   1  0.000  0.000  0.000-   5 2.32   6 2.32   7 2.32   8 2.32
   2  0.750  0.250  0.500-   8 2.32   6 2.32   7 2.32   5 2.32
   3  0.500  0.500  0.000-   8 2.35   6 2.35   7 2.35   5 2.35
   4  0.250  0.750  0.500-   8 2.42   6 2.42   7 2.42   5 2.42
   5  0.118  0.134  0.244-   1 2.32   2 2.32   3 2.35   4 2.42
   6  0.639  0.623  0.244-   1 2.32   2 2.32   3 2.35   4 2.42
   7  0.866  0.361  0.756-   1 2.32   2 2.32   3 2.35   4 2.42
   8  0.377  0.882  0.756-   1 2.32   2 2.32   3 2.35   4 2.42

  LATTYP: Found a body centered tetragonal cell.
 ALAT       =     5.4353000000
 C/A-ratio  =     1.9955400000

  Lattice vectors:

 A1 = (   2.7176500000,  -2.7176500000,   5.4231792810)
 A2 = (  -2.7176500000,   2.7176500000,   5.4231792810)
 A3 = (  -2.7176500000,  -2.7176500000,  -5.4231792810)

Analysis of symmetry for initial positions (statically):
 Subroutine PRICEL returns:
 Original cell was already a primitive cell.

 Routine SETGRP: Setting up the symmetry group for a
 body centered tetragonal supercell.

 Subroutine GETGRP returns: Found  4 space group operations
 (whereof  4 operations were pure point group operations)
 out of a pool of 16 trial point group operations.

The static configuration has the point symmetry S_4 .

Analysis of symmetry for dynamics (positions and initial velocities):
 Subroutine PRICEL returns:
 Original cell was already a primitive cell.

 Routine SETGRP: Setting up the symmetry group for a
 body centered tetragonal supercell.

 Subroutine GETGRP returns: Found  4 space group operations
 (whereof  4 operations were pure point group operations)
 out of a pool of 16 trial point group operations.

The dynamic configuration has the point symmetry S_4 .

 KPOINTS: Automatically generated mesh (51 to igno
  k-points in reciprocal lattice
Space group operators:
 irot       det(A)        alpha          n_x          n_y          n_z        tau_x        tau_y        tau_z
    1     1.000000     0.000000     1.000000     0.000000     0.000000     0.000000     0.000000     0.000000
    2    -1.000000    90.000000     0.000000     0.000000    -1.000000     0.000000     0.000000     0.000000
    3     1.000000   180.000000     0.000000     0.000000     1.000000     0.000000     0.000000     0.000000
    4    -1.000000    90.000000     0.000000     0.000000     1.000000     0.000000     0.000000     0.000000

 I would recommend the setting:
   dimension x,y,z NGX =    40 NGY =   40 NGZ =   48
 SYSTEM =  Name
 POSCAR =  Cu2ZnSnS4 (LaFond 2014, 293 K)

 Startparameter for this run:
   NWRITE =      2    write-flag & timer
   PREC   = accura    normal or accurate (medium, high low for compatibility)
   ISTART =      0    job   : 0-new  1-cont  2-samecut
   ICHARG =     11    charge: 1-file 2-atom 10-const
   ISPIN  =      1    spin polarized calculation?
   LNONCOLLINEAR =      F non collinear calculations
   LSORBIT =      F    spin-orbit coupling
   INIWAV =      1    electr: 0-lowe 1-rand  2-diag
   LASPH  =      F    aspherical Exc in radial PAW
   METAGGA=      F    non-selfconsistent MetaGGA calc.

 Electronic Relaxation 1
   ENCUT  =  500.0 eV  36.75 Ry    6.06 a.u.   9.91  9.91 12.12*2*pi/ulx,y,z
   ENINI  =  500.0     initial cutoff
   ENAUG  =  758.2 eV  augmentation charge cutoff
   NELM   =     60;   NELMIN=  2; NELMDL=  0     # of ELM steps
   EDIFF  = 0.1E-05   stopping-criterion for ELM
   LREAL  =      F    real-space projection
   NLSPLINE    = F    spline interpolate recip. space projectors
   LCOMPAT=      F    compatible to vasp.4.4
   GGA_COMPAT  = T    GGA compatible to vasp.4.4-vasp.4.6
   LMAXPAW     = -100 max onsite density
   LMAXMIX     =    2 max onsite mixed and CHGCAR
   VOSKOWN=      0    Vosko Wilk Nusair interpolation
   ROPT   =    0.00000   0.00000   0.00000   0.00000
 Ionic relaxation
   EDIFFG = -.5E-02   stopping-criterion for IOM
   NSW    =      1    number of steps for IOM
   NBLOCK =      1;   KBLOCK =      1    inner block; outer block
   IBRION =      2    ionic relax: 0-MD 1-quasi-New 2-CG
   NFREE  =      1    steps in history (QN), initial steepest desc. (CG)
   ISIF   =      3    stress and relaxation
   IWAVPR =     11    prediction:  0-non 1-charg 2-wave 3-comb
   ISYM   =      2    0-nonsym 1-usesym 2-fastsym
   LCORR  =      T    Harris-Foulkes like correction to forces

   POTIM  = 0.5000    time-step for ionic-motion
   TEIN   =    0.0    initial temperature
   TEBEG  =    0.0;   TEEND  =   0.0 temperature during run
   SMASS  =  -3.00    Nose mass-parameter (am)
   estimated Nose-frequenzy (Omega)   =  0.10E-29 period in steps =****** mass=  -0.675E-27a.u.
   SCALEE = 1.0000    scale energy and forces
   NPACO  =    256;   APACO  = 16.0  distance and # of slots for P.C.
   PSTRESS=    0.0 pullay stress

  Mass of Ions in am
   POMASS =  63.55 65.39118.71 32.07
  Ionic Valenz
   ZVAL   =  17.00 12.00 14.00  6.00
  Atomic Wigner-Seitz radii
  virtual crystal weights
   VCA    =   1.00  1.00  1.00  1.00
   NELECT =      84.0000    total number of electrons
   NUPDOWN=      -1.0000    fix difference up-down

 DOS related values:
   EMIN   =  10.00;   EMAX   =-10.00  energy-range for DOS
   EFERMI =   0.00
   ISMEAR =     0;   SIGMA  =   0.01  broadening in eV -4-tet -1-fermi 0-gaus

 Electronic relaxation 2 (details)
   IALGO  =     38    algorithm
   LDIAG  =      T    sub-space diagonalisation (order eigenvalues)
   LSUBROT=      F    optimize rotation matrix (better conditioning)
   TURBO    =      0    0=normal 1=particle mesh
   IRESTART =      0    0=no restart 2=restart with 2 vectors
   NREBOOT  =      0    no. of reboots
   NMIN     =      0    reboot dimension
   EREF     =   0.00    reference energy to select bands
   IMIX   =      4    mixing-type and parameters
     AMIX     =   0.40;   BMIX     =  1.00
     AMIX_MAG =   1.60;   BMIX_MAG =  1.00
     AMIN     =   0.01
     WC   =   100.;   INIMIX=   1;  MIXPRE=   1;  MAXMIX= -45

 Intra band minimization:
   WEIMIN = 0.0010     energy-eigenvalue tresh-hold
   EBREAK =  0.48E-08  absolut break condition
   DEPER  =   0.30     relativ break condition

   TIME   =   0.40     timestep for ELM

  volume/ion in A,a.u.               =      20.03       135.15
  Fermi-wavevector in a.u.,A,eV,Ry     =   1.320082  2.494593 23.709739  1.742617
  Thomas-Fermi vector in A             =   2.449934

 Write flags
   LWAVE  =      T    write WAVECAR
   LCHARG =      T    write CHGCAR
   LVTOT  =      F    write LOCPOT, total local potential
   LVHAR  =      F    write LOCPOT, Hartree potential only
   LELF   =      F    write electronic localiz. function (ELF)
   LORBIT =     10    0 simple, 1 ext, 2 COOP (PROOUT)

 Dipole corrections
   LMONO  =      F    monopole corrections only (constant potential shift)
   LDIPOL =      F    correct potential (dipole corrections)
   IDIPOL =      0    1-x, 2-y, 3-z, 4-all directions
   EPSILON=  1.0000000 bulk dielectric constant

 Core level calculations are selected ICORELEVEL =  1
 Exchange correlation treatment:
   GGA     =    --    GGA type
   VOSKOWN=      0    Vosko Wilk Nusair interpolation
   LHFCALC =     F    Hartree Fock is set to
   LHFONE  =     F    Hartree Fock one center treatment
   AEXX    =    0.0000 exact exchange contribution

 Linear response parameters
   LEPSILON=     F    determine dielectric tensor
   LRPA    =     F    only Hartree local field effects (RPA)
   LNABLA  =     F    use nabla operator in PAW spheres
   LVEL    =     F    velocity operator in full k-point grid
   LINTERFAST=   F  fast interpolation
   KINTER  =     0    interpolate to denser k-point grid
   CSHIFT  =0.1000    complex shift for real part using Kramers Kronig
   OMEGAMAX=  -1.0    maximum frequency
   DEG_THRESHOLD= 0.2000000E-02 threshold for treating states as degnerate
   RTIME   =    0.100 relaxation time in fs

 Orbital magnetization related:
   ORBITALMAG=     F  switch on orbital magnetization
   LCHIMAG   =     F  perturbation theory with respect to B field
   DQ        =  0.001000  dq finite difference perturbation B field

 conjugate gradient relaxation of ions
 charge density and potential remain constant during run
 non-spin polarized calculation
 Variant of blocked Davidson
 Davidson routine will perform the subspace rotation
 perform sub-space diagonalisation
    after iterative eigenvector-optimisation
 no mixing
 using additional bands           10
 reciprocal scheme for non local part
 use partial core corrections
 calculate Harris-corrections to forces
   (improved forces if not selfconsistent)
 use of overlap-Matrix (Vanderbilt PP)
 Gauss-broadening in eV      SIGMA  =   0.01

  energy-cutoff  :      500.00
  volume of cell :      160.21
      direct lattice vectors                 reciprocal lattice vectors
     5.435300000  0.000000000  0.000000000     0.183982485  0.000000000 -0.092196841
     0.000000000  5.435300000  0.000000000     0.000000000  0.183982485 -0.092196841
     2.717650000  2.717650000  5.423179281     0.000000000  0.000000000  0.184393683

[...]
 k-point ** :   0.0000 0.3000 0.0000  plane waves:    4073
 k-point ** :   0.0000 0.3050 0.0000  plane waves:    4073
 k-point ** :   0.0000 0.3100 0.0000  plane waves:    4075
 k-point ** :   0.0000 0.3150 0.0000  plane waves:    4075
 k-point ** :   0.0000 0.3200 0.0000  plane waves:    4073
 k-point ** :   0.0000 0.3250 0.0000  plane waves:    4076
 k-point ** :   0.0000 0.3300 0.0000  plane waves:    4075
 k-point ** :   0.0000 0.3350 0.0000  plane waves:    4076
 k-point ** :   0.0000 0.3400 0.0000  plane waves:    4079
 k-point ** :   0.0000 0.3450 0.0000  plane waves:    4079
 k-point ** :   0.0000 0.3500 0.0000  plane waves:    4078
 k-point ** :   0.0000 0.3550 0.0000  plane waves:    4078
 k-point ** :   0.0000 0.3600 0.0000  plane waves:    4078
 k-point ** :   0.0000 0.3650 0.0000  plane waves:    4082
 k-point ** :   0.0000 0.3700 0.0000  plane waves:    4082
 k-point ** :   0.0000 0.3750 0.0000  plane waves:    4082
 k-point ** :   0.0000 0.3800 0.0000  plane waves:    4080
 k-point ** :   0.0000 0.3850 0.0000  plane waves:    4080
 k-point ** :   0.0000 0.3900 0.0000  plane waves:    4078
 k-point ** :   0.0000 0.3950 0.0000  plane waves:    4078
 k-point ** :   0.0000 0.4000 0.0000  plane waves:    4082
 k-point ** :   0.0000 0.4050 0.0000  plane waves:    4082
 k-point ** :   0.0000 0.4100 0.0000  plane waves:    4078
 k-point ** :   0.0000 0.4150 0.0000  plane waves:    4080
 k-point ** :   0.0000 0.4200 0.0000  plane waves:    4084
 k-point ** :   0.0000 0.4250 0.0000  plane waves:    4079
 k-point ** :   0.0000 0.4300 0.0000  plane waves:    4077
 k-point ** :   0.0000 0.4350 0.0000  plane waves:    4079
 k-point ** :   0.0000 0.4400 0.0000  plane waves:    4073
 k-point ** :   0.0000 0.4450 0.0000  plane waves:    4071
 k-point ** :   0.0000 0.4500 0.0000  plane waves:    4075
 k-point ** :   0.0000 0.4550 0.0000  plane waves:    4075
 k-point ** :   0.0000 0.4600 0.0000  plane waves:    4073
 k-point ** :   0.0000 0.4650 0.0000  plane waves:    4070
 k-point ** :   0.0000 0.4700 0.0000  plane waves:    4066
 k-point ** :   0.0000 0.4750 0.0000  plane waves:    4068
 k-point ** :   0.0000 0.4800 0.0000  plane waves:    4070
 k-point ** :   0.0000 0.4850 0.0000  plane waves:    4071
 k-point ** :   0.0000 0.4900 0.0000  plane waves:    4069
 k-point ** :   0.0000 0.4950 0.0000  plane waves:    4069
 k-point ** :   0.0000 0.5000 0.0000  plane waves:    4072
 k-point ** :   0.0050 0.5000 0.0000  plane waves:    4069
 k-point ** :   0.0100 0.5000 0.0000  plane waves:    4070
 k-point ** :   0.0150 0.5000 0.0000  plane waves:    4070
 k-point ** :   0.0200 0.5000 0.0000  plane waves:    4069
 k-point ** :   0.0250 0.5000 0.0000  plane waves:    4068
 k-point ** :   0.0300 0.5000 0.0000  plane waves:    4068
 k-point ** :   0.0350 0.5000 0.0000  plane waves:    4067
[...]
 k-point ** :   0.0532 0.0532 0.5000  plane waves:    4042
 k-point ** :   0.0496 0.0496 0.5000  plane waves:    4042
 k-point ** :   0.0461 0.0461 0.5000  plane waves:    4042
 k-point ** :   0.0426 0.0426 0.5000  plane waves:    4046
 k-point ** :   0.0390 0.0390 0.5000  plane waves:    4043
 k-point ** :   0.0355 0.0355 0.5000  plane waves:    4043
 k-point ** :   0.0319 0.0319 0.5000  plane waves:    4043
 k-point ** :   0.0284 0.0284 0.5000  plane waves:    4045
 k-point ** :   0.0248 0.0248 0.5000  plane waves:    4045
 k-point ** :   0.0213 0.0213 0.5000  plane waves:    4045
 k-point ** :   0.0177 0.0177 0.5000  plane waves:    4041
 k-point ** :   0.0142 0.0142 0.5000  plane waves:    4040
 k-point ** :   0.0106 0.0106 0.5000  plane waves:    4038
 k-point ** :   0.0071 0.0071 0.5000  plane waves:    4044
 k-point ** :   0.0035 0.0035 0.5000  plane waves:    4042

 maximum and minimum number of plane-waves per node :      1038      988

 maximum number of plane-waves:      4094
 maximum index in each direction:
   IXMAX=   10   IYMAX=   10   IZMAX=   12
   IXMIN=  -10   IYMIN=  -10   IZMIN=  -12

 WARNING: aliasing errors must be expected set NGX to  42 to avoid them
 WARNING: aliasing errors must be expected set NGY to  42 to avoid them
 WARNING: aliasing errors must be expected set NGZ to  50 to avoid them
 aliasing errors are usually negligible using standard VASP settings
 and one can safely disregard these warnings

 parallel 3D FFT for wavefunctions:
    minimum data exchange during FFTs selected (reduces bandwidth)
 parallel 3D FFT for charge:
    minimum data exchange during FFTs selected (reduces bandwidth)

 initial charge density was supplied:
 number of electron      83.9999898 magnetization
 keeping initial charge density in first step

 Maximum index for augmentation-charges         1303 (set IRDMAX)

 First call to EWALD:  gamma=   0.326
 Maximum number of real-space cells 3x 3x 3
 Maximum number of reciprocal cells 3x 3x 3

 FEWALD executed in parallel

----------------------------------------- Iteration    1(   1)  ---------------------------------------

 eigenvalue-minimisations  :100492
 total energy-change (2. order) : 0.9610131E+03  (-0.4445707E+04)
 number of electron      83.9999898 magnetization
 augmentation part       83.9999898 magnetization

 Free energy of the ion-electron system (eV)
  alpha Z        PSCENC =       249.48649896
  Ewald energy   TEWEN  =     -7155.92568703
  -Hartree energ DENC   =     -5035.05923199
  -exchange      EXHF   =         0.00000000
  -V(xc)+E(xc)   XCENC  =       384.01810143
  PAW double counting   =      9618.65938397   -10147.75643411
  entropy T*S    EENTRO =        -0.00000001
  eigenvalues    EBANDS =        39.19073971
  atomic energy  EATOM  =     13008.39969644
  free energy    TOTEN  =       961.01306738 eV

  energy without entropy =      961.01306738  energy(sigma->0) =      961.01306738

[...]

 eigenvalue-minimisations  : 84800
 total energy-change (2. order) :-0.8626573E+03  (-0.8366017E+03)
 number of electron      83.9999898 magnetization
 augmentation part       83.9999898 magnetization

[...]

 eigenvalue-minimisations  :100240
 total energy-change (2. order) :-0.8202712E+01  (-0.8115926E+01)
 number of electron      83.9999898 magnetization
 augmentation part       83.9999898 magnetization

[...]

 eigenvalue-minimisations  :110792
 total energy-change (2. order) :-0.4300986E-05  (-0.4301054E-05)
 number of electron      83.9999898 magnetization
 augmentation part       83.9999898 magnetization

[...]

----------------------------------------- Iteration    1(   9)  ---------------------------------------

 eigenvalue-minimisations  : 68180
 total energy-change (2. order) :-0.7053313E-07  (-0.7043750E-07)
 number of electron      83.9999898 magnetization
 augmentation part       83.9999898 magnetization

 Free energy of the ion-electron system (eV)
  alpha Z        PSCENC =       249.48649896
  Ewald energy   TEWEN  =     -7155.92568703
  -Hartree energ DENC   =     -5035.05923199
  -exchange      EXHF   =         0.00000000
  -V(xc)+E(xc)   XCENC  =       384.01810143
  PAW double counting   =      9618.65938397   -10147.75643411
  entropy T*S    EENTRO =        -0.00000000
  eigenvalues    EBANDS =      -959.80734283
  atomic energy  EATOM  =     13008.39969644
  free energy    TOTEN  =       -37.98501516 eV

  energy without entropy =      -37.98501516  energy(sigma->0) =      -37.98501516

 the core state eigenenergies are
   1-  1s  -8798.8792  2s  -1050.3854  2p   -907.5247  3s   -105.5710
   2-  1s  -8798.8959  2s  -1050.3981  2p   -907.5378  3s   -105.5849
   3-  1s  -9469.3682  2s  -1145.2263  2p   -993.7446  3s   -120.0716  3p    -74.8427

   4-  1s -28831.7637  2s  -4350.7217  2p  -3911.1078  3s   -832.3494  3p   -688.1007
       3d   -464.5499  4s   -124.5043  4p    -80.6604
   5-  1s  -2382.4684  2s   -199.9944  2p   -145.8593
   6-  1s  -2382.4684  2s   -199.9944  2p   -145.8593
   7-  1s  -2382.4684  2s   -199.9944  2p   -145.8593
   8-  1s  -2382.4684  2s   -199.9944  2p   -145.8593

 E-fermi :   4.8222     XC(G=0): -10.2352     alpha+bet :-10.1852

 k-point     1 :       0.0000    0.0000    0.0000
  band No.  band energies     occupation
      1     -63.9187      2.00000
      2     -63.8637      2.00000
      3     -63.8637      2.00000
      4     -63.8428      2.00000
      5     -63.8428      2.00000
      6     -63.8354      2.00000
      7     -17.4121      2.00000
      8     -17.4083      2.00000
      9     -17.4083      2.00000
     10     -17.3168      2.00000
     11     -17.3115      2.00000
     12      -9.7090      2.00000
     13      -8.1410      2.00000
     14      -8.1301      2.00000
     15      -8.1301      2.00000
     16      -3.3594      2.00000
     17      -2.4924      2.00000
     18      -2.4243      2.00000
     19      -2.4220      2.00000
     20      -2.4220      2.00000
     21      -2.3220      2.00000
     22      -0.9321      2.00000
     23      -0.2901      2.00000
     24      -0.1864      2.00000
     25       0.2720      2.00000
     26       0.2720      2.00000
     27       0.3009      2.00000
     28       1.0215      2.00000
     29       1.0215      2.00000
     30       1.4788      2.00000
     31       1.4788      2.00000
     32       1.4928      2.00000
     33       2.5849      2.00000
     34       2.6277      2.00000
     35       2.8238      2.00000
     36       3.0805      2.00000
     37       3.1002      2.00000
     38       3.1002      2.00000
     39       3.2611      2.00000
     40       4.6722      2.00000
     41       4.6722      2.00000
     42       4.7474      2.00000
     43       4.9159      0.00000
     44       6.6487      0.00000
     45       7.4756      0.00000
     46       8.4556      0.00000
     47       8.4556      0.00000
     48       9.5399      0.00000
     49       9.6244      0.00000
     50       9.8892      0.00000
     51       9.8892      0.00000
     52      10.2867      0.00000

[...]

 k-point   814 :       0.0035    0.0035    0.5000
  band No.  band energies     occupation
      1     -63.9186      2.00000
      2     -63.8637      2.00000
      3     -63.8637      2.00000
      4     -63.8428      2.00000
      5     -63.8428      2.00000
      6     -63.8353      2.00000
      7     -17.4122      2.00000
      8     -17.4080      2.00000
      9     -17.4080      2.00000
     10     -17.3169      2.00000
     11     -17.3114      2.00000
     12      -9.2276      2.00000
     13      -8.8244      2.00000
     14      -8.1455      2.00000
     15      -8.1455      2.00000
     16      -3.4348      2.00000
     17      -2.5111      2.00000
     18      -2.4616      2.00000
     19      -2.4615      2.00000
     20      -2.3760      2.00000
     21      -2.0708      2.00000
     22      -1.2217      2.00000
     23       0.1679      2.00000
     24       0.2017      2.00000
     25       0.5082      2.00000
     26       0.5998      2.00000
     27       0.5999      2.00000
     28       1.0548      2.00000
     29       1.0548      2.00000
     30       1.3830      2.00000
     31       1.5198      2.00000
     32       1.5199      2.00000
     33       2.4665      2.00000
     34       2.7362      2.00000
     35       2.7935      2.00000
     36       2.8725      2.00000
     37       3.4919      2.00000
     38       3.5766      2.00000
     39       3.5778      2.00000
     40       3.6186      2.00000
     41       3.8656      2.00000
     42       3.8657      2.00000
     43       6.1472      0.00000
     44       6.6961      0.00000
     45       6.6961      0.00000
     46       7.0636      0.00000
     47       7.8717      0.00000
     48       8.0949      0.00000
     49       8.8319      0.00000
     50       8.8734      0.00000
     51      11.2700      0.00000
     52      11.2705      0.00000

 soft charge-density along one line, spin component           1
         0         1         2         3         4         5         6         7         8         9
 total charge-density along one line

------------------------ aborting loop because EDIFF is reached ----------------------------------------

 total charge

# of ion     s       p       d       tot
  1        0.241   6.176   8.963  15.380
  2        0.240   6.173   8.963  15.377
  3        0.541   0.476   9.797  10.814
  4        1.117   1.133  10.107  12.357
  5        1.327   2.362   0.000   3.689
  6        1.328   2.362   0.000   3.689
  7        1.327   2.362   0.000   3.689
  8        1.327   2.361   0.000   3.688
tot        7.448  23.406  37.829  68.684

  FORCE on cell =-STRESS in cart. coord.  units (eV):
  Direction    XX          YY          ZZ          XY          YZ          ZX
  Alpha Z   249.48650   249.48650   249.48650
  Ewald   -2394.86127 -2394.86127 -2366.21278     0.00000     0.00000     0.00000
  Hartree  1668.07087  1668.07087  1698.85408     0.00000     0.00016     0.00014
  E(xc)    -483.81912  -483.81912  -483.81854    -0.00000    -0.00000    -0.00000
  Local    -671.37310  -671.37310  -730.96423     0.00001    -0.00023    -0.00020
  n-local   230.88766   231.04724   231.58024     0.04796    -0.04604     0.11143
  augment   484.28350   484.28350   483.82131     0.00023    -0.00242    -0.00242
  Kinetic   911.54805   913.85809   912.70305    -0.03266    -0.19447    -0.39653
  Fock        0.00000     0.00000     0.00000     0.00000     0.00000     0.00000
  Total      -4.54209    -4.54209    -4.55037     0.00000     0.00000     0.00000
  in kB     -45.42193   -45.42193   -45.50475     0.00000     0.00000     0.00000

 VOLUME and BASIS-vectors are now :
  energy-cutoff  :      500.00
  volume of cell :      160.21
      direct lattice vectors                 reciprocal lattice vectors
     5.435300000  0.000000000  0.000000000     0.183982485  0.000000000 -0.092196841
     0.000000000  5.435300000  0.000000000     0.000000000  0.183982485 -0.092196841
     2.717650000  2.717650000  5.423179281     0.000000000  0.000000000  0.184393683

  length of vectors
     5.435300000  5.435300000  6.646962958     0.205790700  0.205790700  0.184393683

 FORCES acting on ions
    electron-ion (+dipol)            ewald-force                    non-local-force                 convergence-correction
   -.331E-05 -.337E-06 0.841E-06   0.790E-11 -.246E-11 -.851E-11   0.000E+00 0.867E-18 0.000E+00   -.442E-07 -.149E-06 -.877E-07
   0.648E-06 0.342E-05 0.157E-05   -.763E-11 -.242E-11 0.874E-11   0.867E-18 0.000E+00 0.000E+00   -.153E-06 -.233E-06 -.172E-06
   0.210E-05 -.320E-05 -.919E-06   0.543E-11 -.263E-11 0.605E-11   -.651E-18 0.867E-18 0.000E+00   -.228E-07 0.697E-07 0.699E-07
   0.241E-05 -.179E-05 -.992E-06   -.550E-11 -.257E-11 -.620E-11   -.347E-17 0.347E-17 0.000E+00   0.255E-07 0.778E-07 -.467E-07
   -.634E+02 -.739E+01 0.597E+01   0.613E+02 0.840E+01 -.704E+01   0.169E+01 -.823E+00 0.864E+00   0.207E-02 -.932E-03 0.258E-03
   0.634E+02 0.739E+01 0.597E+01   -.613E+02 -.840E+01 -.704E+01   -.169E+01 0.823E+00 0.864E+00   -.207E-02 0.932E-03 0.258E-03
   0.739E+01 -.634E+02 -.597E+01   -.840E+01 0.613E+02 0.704E+01   0.823E+00 0.169E+01 -.864E+00   0.932E-03 0.207E-02 -.258E-03
   -.739E+01 0.634E+02 -.597E+01   0.840E+01 -.613E+02 0.704E+01   -.823E+00 -.169E+01 -.864E+00   -.932E-03 -.207E-02 -.258E-03
   -.193E-04 -.196E-04 0.529E-05   0.178E-14 -.711E-14 -.133E-13   -.111E-15 -.222E-15 -.111E-15   -.214E-06 -.266E-06 -.312E-06

 POSITION                                       TOTAL-FORCE (eV/Angst)
      0.00000      0.00000      0.00000        -0.000000      0.000000     -0.000000
      5.43530      2.71765      2.71159        -0.000000      0.000000     -0.000000
      2.71765      2.71765      0.00000        -0.000000      0.000000     -0.000000
      2.71765      5.43530      2.71159        -0.000000      0.000000     -0.000000
      1.30213      1.38979      1.32105        -0.387686      0.194211     -0.208397
      4.13317      4.04551      1.32105         0.387686     -0.194211     -0.208397
      6.76316      4.01978      4.10213        -0.194211     -0.387686      0.208397
      4.10744      6.85082      4.10213         0.194211      0.387686      0.208397
    total drift:                               -0.000019     -0.000020      0.000005

  FREE ENERGIE OF THE ION-ELECTRON SYSTEM (eV)
  free  energy   TOTEN  =       -37.98501516 eV

  energy  without entropy=      -37.98501516  energy(sigma->0) =      -37.98501516

 writing wavefunctions

 total charge

# of ion     s       p       d       tot
  1        0.241   6.176   8.963  15.380
  2        0.240   6.173   8.963  15.377
  3        0.541   0.476   9.797  10.814
  4        1.117   1.133  10.107  12.357
  5        1.327   2.362   0.000   3.689
  6        1.328   2.362   0.000   3.689
  7        1.327   2.362   0.000   3.689
  8        1.327   2.361   0.000   3.688
tot        7.448  23.406  37.829  68.684