 vasp.5.3.5 31Mar14 (build Apr 15 2015 10:45:18) complex

 executed on             LinuxIFC date 2016.01.07  12:45:18

 INCAR:
 POTCAR:    PAW_PBE C 08Apr2002
 POTCAR:    PAW_PBE N 08Apr2002
 POTCAR:    PAW_PBE H 15Jun2001
 POTCAR:    PAW_PBE Pb_d 06Sep2000
 POTCAR:    PAW_PBE I 08Apr2002

 POTCAR:    PAW_PBE C 08Apr2002
   VRHFIN =C: s2p2

   TITEL  = PAW_PBE C 08Apr2002
   POMASS =   12.011; ZVAL   =    4.000    mass and valenz
   ENMAX  =  400.000; ENMIN  =  300.000 eV

 POTCAR:    PAW_PBE N 08Apr2002
   VRHFIN =N: s2p3

[...]

 POTCAR:    PAW_PBE H 15Jun2001
   VRHFIN =H: ultrasoft test

   TITEL  = PAW_PBE H 15Jun2001
   POMASS =    1.000; ZVAL   =    1.000    mass and valenz
   ENMAX  =  250.000; ENMIN  =  200.000 eV

 POTCAR:    PAW_PBE Pb_d 06Sep2000
   VRHFIN =Pb:

   TITEL  = PAW_PBE Pb_d 06Sep2000
   POMASS =  207.200; ZVAL   =   14.000    mass and valenz
   ENMAX  =  237.835; ENMIN  =  178.376 eV

 POTCAR:    PAW_PBE I 08Apr2002
   VRHFIN =I : s2p5

   TITEL  = PAW_PBE I 08Apr2002
   POMASS =  126.904; ZVAL   =    7.000    mass and valenz
   ENMAX  =  175.647; ENMIN  =  131.735 eV

  PAW_PBE C 08Apr2002                   :
  PAW_PBE N 08Apr2002                   :
  PAW_PBE H 15Jun2001                   :
  PAW_PBE Pb_d 06Sep2000                :
  PAW_PBE I 08Apr2002                   :

 POSCAR: MA-Pb-I (Github)
  positions in direct lattice
 exchange correlation table for  LEXCH =        8
   RHO(1)=    0.500       N(1)  =     2000
   RHO(2)=  100.500       N(2)  =     4000

 ion  position               nearest neighbor table
   1  0.903  1.000  0.996-   3 1.10   5 1.10   4 1.10   2 1.48
   2  0.137  1.000  0.025-   6 1.04   7 1.04   8 1.05   1 1.48
   3  0.865  1.000  0.826-   1 1.10
   4  0.838  0.144  0.072-   1 1.10
   5  0.838  0.857  0.072-   1 1.10
   6  0.208  0.134  0.958-   2 1.04
   7  0.207  0.865  0.958-   2 1.04
   8  0.182  0.000  0.185-   2 1.05
   9  0.476  0.500  0.476-  12 3.07  10 3.15  11 3.15  11 3.15  10 3.18  12 3.23
  10  0.427  0.500  0.973-   9 3.15   9 3.18
  11  0.436  0.000  0.507-   9 3.15   9 3.15
  12  0.963  0.500  0.448-   9 3.07   9 3.23

  LATTYP: Found a simple monoclinic cell.
 ALAT       =     6.2901201248
 B/A-ratio  =     0.9974197462
 C/A-ratio  =     1.4105278383
 COS(beta)  =    -0.7044835581

  Lattice vectors:

 A1 = (  -6.2901201248,   0.0000000000,   0.0000000000)
 A2 = (  -0.0000776940,  -6.2738900180,   0.0000000000)
 A3 = (   6.2504525538,  -0.0001537931,   6.2969150416)

Analysis of symmetry for initial positions (statically):
 Subroutine PRICEL returns:
 Original cell was already a primitive cell.

 Routine SETGRP: Setting up the symmetry group for a
 simple monoclinic supercell.

 Subroutine GETGRP returns: Found  1 space group operations
 (whereof  1 operations were pure point group operations)
 out of a pool of  4 trial point group operations.

The static configuration has the point symmetry C_1 .

Analysis of symmetry for dynamics (positions and initial velocities):
 Subroutine PRICEL returns:
 Original cell was already a primitive cell.

 Routine SETGRP: Setting up the symmetry group for a
 simple monoclinic supercell.

 Subroutine GETGRP returns: Found  1 space group operations
 (whereof  1 operations were pure point group operations)
 out of a pool of  4 trial point group operations.

The dynamic configuration has the point symmetry C_1 .

 KPOINTS: Automatic mesh

Automatic generation of k-mesh.
Space group operators:
 irot       det(A)        alpha          n_x          n_y          n_z        tau_x        tau_y        tau_z
    1     1.000000     0.000000     1.000000     0.000000     0.000000     0.000000     0.000000     0.000000

 Subroutine IBZKPT returns following result:

 Found    112 irreducible k-points:

 Following reciprocal coordinates:
            Coordinates               Weight
  0.000000  0.000000  0.000000      1.000000
  0.166667  0.000000  0.000000      2.000000
  0.333333  0.000000  0.000000      2.000000
  0.500000  0.000000  0.000000      1.000000
  0.000000  0.166667  0.000000      2.000000
  0.166667  0.166667  0.000000      2.000000
  0.333333  0.166667  0.000000      2.000000
  0.500000  0.166667  0.000000      2.000000
 -0.333333  0.166667 -0.000000      2.000000
 -0.166667  0.166667 -0.000000      2.000000
  0.000000  0.333333  0.000000      2.000000
  0.166667  0.333333  0.000000      2.000000
  0.333333  0.333333  0.000000      2.000000
  0.500000  0.333333  0.000000      2.000000
 -0.333333  0.333333  0.000000      2.000000
 -0.166667  0.333333 -0.000000      2.000000
  0.000000  0.500000  0.000000      1.000000
  0.166667  0.500000  0.000000      2.000000
  0.333333  0.500000  0.000000      2.000000
  0.500000  0.500000  0.000000      1.000000
  0.000000  0.000000  0.166667      2.000000
  0.166667  0.000000  0.166667      2.000000
  0.333333  0.000000  0.166667      2.000000
  0.500000  0.000000  0.166667      2.000000
 -0.333333 -0.000000  0.166667      2.000000
 -0.166667 -0.000000  0.166667      2.000000
  0.000000  0.166667  0.166667      2.000000
  0.166667  0.166667  0.166667      2.000000
  0.333333  0.166667  0.166667      2.000000
  0.500000  0.166667  0.166667      2.000000
 -0.333333  0.166667  0.166667      2.000000
 -0.166667  0.166667  0.166667      2.000000
  0.000000  0.333333  0.166667      2.000000
  0.166667  0.333333  0.166667      2.000000
  0.333333  0.333333  0.166667      2.000000
  0.500000  0.333333  0.166667      2.000000
 -0.333333  0.333333  0.166667      2.000000
 -0.166667  0.333333  0.166667      2.000000
  0.000000  0.500000  0.166667      2.000000
  0.166667  0.500000  0.166667      2.000000
  0.333333  0.500000  0.166667      2.000000
  0.500000  0.500000  0.166667      2.000000
 -0.333333  0.500000  0.166667      2.000000
 -0.166667  0.500000  0.166667      2.000000
  0.000000 -0.333333  0.166667      2.000000
  0.166667 -0.333333  0.166667      2.000000
  0.333333 -0.333333  0.166667      2.000000
  0.500000 -0.333333  0.166667      2.000000
 -0.333333 -0.333333  0.166667      2.000000
 -0.166667 -0.333333  0.166667      2.000000
  0.000000 -0.166667  0.166667      2.000000
  0.166667 -0.166667  0.166667      2.000000
  0.333333 -0.166667  0.166667      2.000000
  0.500000 -0.166667  0.166667      2.000000
 -0.333333 -0.166667  0.166667      2.000000
 -0.166667 -0.166667  0.166667      2.000000
  0.000000  0.000000  0.333333      2.000000
  0.166667  0.000000  0.333333      2.000000
  0.333333  0.000000  0.333333      2.000000
  0.500000  0.000000  0.333333      2.000000
[...]
  0.166667  0.166667  0.500000      2.000000
  0.333333  0.166667  0.500000      2.000000
  0.500000  0.166667  0.500000      2.000000
 -0.333333  0.166667  0.500000      2.000000
 -0.166667  0.166667  0.500000      2.000000
  0.000000  0.333333  0.500000      2.000000
  0.166667  0.333333  0.500000      2.000000
  0.333333  0.333333  0.500000      2.000000
  0.500000  0.333333  0.500000      2.000000
 -0.333333  0.333333  0.500000      2.000000
 -0.166667  0.333333  0.500000      2.000000
  0.000000  0.500000  0.500000      1.000000
  0.166667  0.500000  0.500000      2.000000
  0.333333  0.500000  0.500000      2.000000
  0.500000  0.500000  0.500000      1.000000

 Following cartesian coordinates:
            Coordinates               Weight
  0.000000  0.000000  0.000000      1.000000
  0.026497 -0.000000  0.000167      2.000000
  0.052993 -0.000001  0.000334      2.000000
  0.079490 -0.000001  0.000501      1.000000
  0.000000  0.026565  0.000001      2.000000
  0.026497  0.026565  0.000168      2.000000
  0.052993  0.026564  0.000334      2.000000
  0.079490  0.026564  0.000501      2.000000
 -0.052993  0.026566 -0.000333      2.000000
 -0.026497  0.026565 -0.000166      2.000000
  0.000000  0.053130  0.000001      2.000000
  0.026497  0.053130  0.000168      2.000000
  0.052993  0.053130  0.000335      2.000000
  0.079490  0.053129  0.000502      2.000000
 -0.052993  0.053131 -0.000333      2.000000
 -0.026497  0.053131 -0.000166      2.000000
  0.000000  0.079695  0.000002      1.000000
  0.026497  0.079695  0.000169      2.000000
  0.052993  0.079695  0.000336      2.000000
  0.079490  0.079694  0.000503      1.000000
  0.000000  0.000000  0.026468      2.000000
  0.026497 -0.000000  0.026635      2.000000
  0.052993 -0.000001  0.026802      2.000000
  0.079490 -0.000001  0.026969      2.000000
 -0.052993  0.000001  0.026134      2.000000
 -0.026497  0.000000  0.026301      2.000000
  0.000000  0.026565  0.026469      2.000000
  0.026497  0.026565  0.026636      2.000000
  0.052993  0.026564  0.026802      2.000000
  0.079490  0.026564  0.026969      2.000000
 -0.052993  0.026566  0.026135      2.000000
 -0.026497  0.026565  0.026302      2.000000
  0.000000  0.053130  0.026469      2.000000
  0.026497  0.053130  0.026636      2.000000
  0.052993  0.053130  0.026803      2.000000
  0.079490  0.053129  0.026970      2.000000
 -0.052993  0.053131  0.026135      2.000000
 -0.026497  0.053131  0.026302      2.000000
  0.000000  0.079695  0.026470      2.000000
  0.026497  0.079695  0.026637      2.000000
  0.052993  0.079695  0.026804      2.000000
  0.079490  0.079694  0.026971      2.000000
 -0.052993  0.079696  0.026136      2.000000
 -0.026497  0.079696  0.026303      2.000000
  0.000000 -0.053130  0.026467      2.000000
  0.026497 -0.053131  0.026634      2.000000
  0.052993 -0.053131  0.026801      2.000000
  0.079490 -0.053131  0.026967      2.000000
 -0.052993 -0.053130  0.026133      2.000000
 -0.026497 -0.053130  0.026300      2.000000
  0.000000 -0.026565  0.026467      2.000000
  0.026497 -0.026565  0.026634      2.000000
  0.052993 -0.026566  0.026801      2.000000
  0.079490 -0.026566  0.026968      2.000000
 -0.052993 -0.026564  0.026134      2.000000
 -0.026497 -0.026565  0.026300      2.000000
  0.000000  0.000000  0.052936      2.000000
  0.026497 -0.000000  0.053103      2.000000
  0.052993 -0.000001  0.053270      2.000000
  0.079490 -0.000001  0.053437      2.000000
[...]
  0.026497  0.026565  0.079572      2.000000
  0.052993  0.026564  0.079738      2.000000
  0.079490  0.026564  0.079905      2.000000
 -0.052993  0.026566  0.079071      2.000000
 -0.026497  0.026565  0.079238      2.000000
  0.000000  0.053130  0.079405      2.000000
  0.026497  0.053130  0.079572      2.000000
  0.052993  0.053130  0.079739      2.000000
  0.079490  0.053129  0.079906      2.000000
 -0.052993  0.053131  0.079071      2.000000
 -0.026497  0.053131  0.079238      2.000000
  0.000000  0.079695  0.079406      1.000000
  0.026497  0.079695  0.079573      2.000000
  0.052993  0.079695  0.079740      2.000000
  0.079490  0.079694  0.079907      1.000000

 Subroutine IBZKPT_HF returns following result:

 Found    216 k-points in 1st BZ
 the following    216 k-points will be used (e.g. in the exchange kernel)
 Following reciprocal coordinates:   # in IRBZ
  0.000000  0.000000  0.000000       1 t-inv F
  0.166667  0.000000  0.000000       2 t-inv F
  0.333333  0.000000  0.000000       3 t-inv F
  0.500000  0.000000  0.000000       4 t-inv F
  0.000000  0.166667  0.000000       5 t-inv F
  0.166667  0.166667  0.000000       6 t-inv F
[...]
 k-point 25 :  -0.3333-0.0000 0.1667  plane waves:    6311
 k-point 26 :  -0.1667-0.0000 0.1667  plane waves:    6308
 k-point 27 :   0.0000 0.1667 0.1667  plane waves:    6315
 k-point 28 :   0.1667 0.1667 0.1667  plane waves:    6321
 k-point 29 :   0.3333 0.1667 0.1667  plane waves:    6318
 k-point 30 :   0.5000 0.1667 0.1667  plane waves:    6300
 k-point 31 :  -0.3333 0.1667 0.1667  plane waves:    6317
 k-point 32 :  -0.1667 0.1667 0.1667  plane waves:    6331
 k-point 33 :   0.0000 0.3333 0.1667  plane waves:    6315
 k-point 34 :   0.1667 0.3333 0.1667  plane waves:    6311
 k-point 35 :   0.3333 0.3333 0.1667  plane waves:    6304
 k-point 36 :   0.5000 0.3333 0.1667  plane waves:    6304
 k-point 37 :  -0.3333 0.3333 0.1667  plane waves:    6307
 k-point 38 :  -0.1667 0.3333 0.1667  plane waves:    6311
 k-point 39 :   0.0000 0.5000 0.1667  plane waves:    6308
 k-point 40 :   0.1667 0.5000 0.1667  plane waves:    6305
 k-point 41 :   0.3333 0.5000 0.1667  plane waves:    6316
 k-point 42 :   0.5000 0.5000 0.1667  plane waves:    6300
 k-point 43 :  -0.3333 0.5000 0.1667  plane waves:    6297
 k-point 44 :  -0.1667 0.5000 0.1667  plane waves:    6306
 k-point 45 :   0.0000-0.3333 0.1667  plane waves:    6315
 k-point 46 :   0.1667-0.3333 0.1667  plane waves:    6311
 k-point 47 :   0.3333-0.3333 0.1667  plane waves:    6304
 k-point 48 :   0.5000-0.3333 0.1667  plane waves:    6304
 k-point 49 :  -0.3333-0.3333 0.1667  plane waves:    6306
 k-point 50 :  -0.1667-0.3333 0.1667  plane waves:    6311
 k-point 51 :   0.0000-0.1667 0.1667  plane waves:    6314
 k-point 52 :   0.1667-0.1667 0.1667  plane waves:    6321
 k-point 53 :   0.3333-0.1667 0.1667  plane waves:    6318
 k-point 54 :   0.5000-0.1667 0.1667  plane waves:    6300
 k-point 55 :  -0.3333-0.1667 0.1667  plane waves:    6317
 k-point 56 :  -0.1667-0.1667 0.1667  plane waves:    6331
 k-point 57 :   0.0000 0.0000 0.3333  plane waves:    6323
 k-point 58 :   0.1667 0.0000 0.3333  plane waves:    6319
 k-point 59 :   0.3333 0.0000 0.3333  plane waves:    6300
 k-point 60 :   0.5000 0.0000 0.3333  plane waves:    6301
[...]
 k-point 85 :  -0.3333-0.3333 0.3333  plane waves:    6297
 k-point 86 :  -0.1667-0.3333 0.3333  plane waves:    6299
 k-point 87 :   0.0000-0.1667 0.3333  plane waves:    6313
 k-point 88 :   0.1667-0.1667 0.3333  plane waves:    6320
 k-point 89 :   0.3333-0.1667 0.3333  plane waves:    6309
 k-point 90 :   0.5000-0.1667 0.3333  plane waves:    6307
 k-point 91 :  -0.3333-0.1667 0.3333  plane waves:    6303
 k-point 92 :  -0.1667-0.1667 0.3333  plane waves:    6321
 k-point 93 :   0.0000 0.0000 0.5000  plane waves:    6334
 k-point 94 :   0.1667 0.0000 0.5000  plane waves:    6312
 k-point 95 :   0.3333 0.0000 0.5000  plane waves:    6298
 k-point 96 :   0.5000 0.0000 0.5000  plane waves:    6272
 k-point 97 :   0.0000 0.1667 0.5000  plane waves:    6310
 k-point 98 :   0.1667 0.1667 0.5000  plane waves:    6306
 k-point 99 :   0.3333 0.1667 0.5000  plane waves:    6302
 k-point ** :   0.5000 0.1667 0.5000  plane waves:    6304
 k-point ** :  -0.3333 0.1667 0.5000  plane waves:    6302
 k-point ** :  -0.1667 0.1667 0.5000  plane waves:    6305
 k-point ** :   0.0000 0.3333 0.5000  plane waves:    6298
 k-point ** :   0.1667 0.3333 0.5000  plane waves:    6304
 k-point ** :   0.3333 0.3333 0.5000  plane waves:    6291
 k-point ** :   0.5000 0.3333 0.5000  plane waves:    6270
 k-point ** :  -0.3333 0.3333 0.5000  plane waves:    6293
 k-point ** :  -0.1667 0.3333 0.5000  plane waves:    6304
 k-point ** :   0.0000 0.5000 0.5000  plane waves:    6276
 k-point ** :   0.1667 0.5000 0.5000  plane waves:    6300
 k-point ** :   0.3333 0.5000 0.5000  plane waves:    6282
 k-point ** :   0.5000 0.5000 0.5000  plane waves:    6272

 maximum and minimum number of plane-waves per node :      1604     1546

 maximum number of plane-waves:      6358
 maximum index in each direction:
   IXMAX=   11   IYMAX=   11   IZMAX=   11
   IXMIN=  -11   IYMIN=  -11   IZMIN=  -11

 NGX is ok and might be reduce to  46
 NGY is ok and might be reduce to  46
 NGZ is ok and might be reduce to  46

 parallel 3D FFT for wavefunctions:
    minimum data exchange during FFTs selected (reduces bandwidth)
 parallel 3D FFT for charge:
    minimum data exchange during FFTs selected (reduces bandwidth)

 FFT grid for exact exchange (Hartree Fock)
  NGX = 24; NGY = 24; NGZ = 24

 Radii for the augmentation spheres in the non-local exchange
 for species   1 augmentation radius   0.944 (default was   0.699)
       energy cutoff for augmentation   2000.0
 for species   2 augmentation radius   0.957 (default was   0.709)
       energy cutoff for augmentation   2000.0
 for species   3 augmentation radius   0.702 (default was   0.520)
       energy cutoff for augmentation   2000.0
 for species   4 augmentation radius   1.558 (default was   1.154)
       energy cutoff for augmentation   2000.0
 for species   5 augmentation radius   1.603 (default was   1.188)
       energy cutoff for augmentation   2000.0

 real space projection operators:
  max/ min on nodes  :        204.88        191.10

 Broyden mixing: mesh for mixing (old mesh)
   NGX = 23   NGY = 23   NGZ = 23
  (NGX  = 96   NGY  = 96   NGZ  = 96)
  gives a total of  12167 points

 initial charge density was supplied:
 charge density of overlapping atoms calculated
 number of electron      50.0000000 magnetization
 charge density for first step will be calculated from the start-wavefunctions

 Maximum index for augmentation-charges         1654 (set IRDMAX)

 First call to EWALD:  gamma=   0.282
 Maximum number of real-space cells 3x 3x 3
 Maximum number of reciprocal cells 3x 3x 3

 FEWALD executed in parallel

----------------------------------------- Iteration    1(   1)  ---------------------------------------

 eigenvalue-minimisations  : 11648
 total energy-change (2. order) : 0.2170508E+04  (-0.1209725E+05)
 number of electron      50.0000000 magnetization
 augmentation part       50.0000000 magnetization

 Free energy of the ion-electron system (eV)
  alpha Z        PSCENC =        46.46595848
  Ewald energy   TEWEN  =     -1941.32201603
  -Hartree energ DENC   =     -1015.77699842
  -exchange      EXHF   =         0.00000000
  -V(xc)+E(xc)   XCENC  =        31.89644362
  PAW double counting   =      2588.52035627    -2506.37953360
  entropy T*S    EENTRO =        -0.00005224
  eigenvalues    EBANDS =      1882.07819159
  atomic energy  EATOM  =      3085.02549811
  free energy    TOTEN  =      2170.50784778 eV

  energy without entropy =     2170.50790002  energy(sigma->0) =     2170.50787390

[...]

 eigenvalue-minimisations  :  8312
 total energy-change (2. order) :-0.1613450E+04  (-0.1525675E+04)
 number of electron      50.0000000 magnetization
 augmentation part       50.0000000 magnetization

[...]

----------------------------------------- Iteration    1(  21)  ---------------------------------------

 eigenvalue-minimisations  :     0
 total energy-change (2. order) :-0.2465631E-06  (-0.1994491E-06)
 number of electron      49.9999995 magnetization
 augmentation part        1.1665561 magnetization

 Free energy of the ion-electron system (eV)
  alpha Z        PSCENC =        46.46595848
  Ewald energy   TEWEN  =     -1941.32201603
  -Hartree energ DENC   =     -1054.71422833
  -exchange      EXHF   =        96.12155873
  -V(xc)+E(xc)   XCENC  =        34.93941174
  PAW double counting   =      4497.10468059    -4414.18955109
  entropy T*S    EENTRO =        -0.00000000
  eigenvalues    EBANDS =      -409.30994636
  atomic energy  EATOM  =      3085.02549811
  free energy    TOTEN  =       -59.87863416 eV

  energy without entropy =      -59.87863416  energy(sigma->0) =      -59.87863416

  average scaling for gradient   0.8054

 the core state eigenenergies are
   1-  1s    -49.6764
   2-  1s    -64.9167
   3-
   4-
   5-
   6-
   7-
   8-
   9-  1s    -89.8752  2s    -89.6966  2p    -89.6966  3s    -89.6966  3p    -89.6966
       3d    -89.6966  4s    -89.6966  4p    -89.6966  4d    -89.6966  4f    -89.6966
       5s    -89.6966  5p    -89.6966
  10-  1s    -89.9680  2s    -90.1299  2p    -90.1299  3s    -90.1299  3p    -90.1299
       3d    -90.1299  4s    -90.1299  4p    -90.1299  4d    -90.1299
  11-  1s    -89.9053  2s    -90.0674  2p    -90.0674  3s    -90.0674  3p    -90.0674
       3d    -90.0674  4s    -90.0674  4p    -90.0674  4d    -90.0674
  12-  1s    -89.6039  2s    -89.7547  2p    -89.7547  3s    -89.7547  3p    -89.7547
       3d    -89.7547  4s    -89.7547  4p    -89.7547  4d    -89.7547

 E-fermi :   1.3925     XC(G=0):  -6.3696     alpha+bet : -7.1939

 k-point     1 :       0.0000    0.0000    0.0000
  band No.  band energies     occupation
      1     -20.8447      2.00000
      2     -17.1701      2.00000
      3     -17.1454      2.00000
      4     -17.0974      2.00000
      5     -17.0794      2.00000
      6     -17.0751      2.00000
      7     -13.3013      2.00000
      8     -12.3663      2.00000
      9     -11.5769      2.00000
     10     -11.2836      2.00000
     11      -9.2635      2.00000
     12      -9.0896      2.00000
     13      -7.0438      2.00000
     14      -6.0257      2.00000
     15      -4.7467      2.00000
     16      -4.7301      2.00000
     17      -2.8280      2.00000
     18      -2.8261      2.00000
     19      -2.6560      2.00000
     20      -0.6280      2.00000
     21      -0.6052      2.00000
     22      -0.5259      2.00000
     23      -0.3721      2.00000
     24      -0.1089      2.00000
     25      -0.0943      2.00000
     26       5.5336      0.00000
     27       6.4553      0.00000
     28       6.6171      0.00000
     29       6.8625      0.00000
     30       6.9917      0.00000
     31       7.0141      0.00000
     32       8.7067      0.00000

[...]

 k-point   112 :       0.5000    0.5000    0.5000
  band No.  band energies     occupation
      1     -20.8419      2.00000
      2     -17.1505      2.00000
      3     -17.1269      2.00000
      4     -17.0990      2.00000
      5     -17.0811      2.00000
      6     -17.0767      2.00000
      7     -13.3081      2.00000
      8     -11.9230      2.00000
      9     -11.8498      2.00000
     10     -11.4790      2.00000
     11      -9.1749      2.00000
     12      -9.0543      2.00000
     13      -8.0453      2.00000
     14      -7.0320      2.00000
     15      -4.7393      2.00000
     16      -4.7287      2.00000
     17      -1.7251      2.00000
     18      -1.3271      2.00000
     19      -1.2856      2.00000
     20      -0.5016      2.00000
     21      -0.4218      2.00000
     22      -0.1687      2.00000
     23       0.2467      2.00000
     24       0.2534      2.00000
     25       1.2556      2.00000
     26       3.2882      0.00000
     27       3.2932      0.00000
     28       3.5078      0.00000
     29       6.1786      0.00000
     30       7.7664      0.00000
     31       8.2827      0.00000
     32       8.5265      0.00000

 soft charge-density along one line, spin component           1
         0         1         2         3         4         5         6         7         8         9
 total charge-density along one line

------------------------ aborting loop because EDIFF is reached ----------------------------------------

 total charge

# of ion     s       p       d       tot
  1        0.844   1.760   0.000   2.604
  2        1.226   2.788   0.000   4.014
  3        0.638   0.046   0.000   0.684
  4        0.637   0.046   0.000   0.683
  5        0.637   0.046   0.000   0.683
  6        0.599   0.080   0.000   0.679
  7        0.599   0.080   0.000   0.679
  8        0.594   0.080   0.000   0.674
  9        1.519   0.477   9.846  11.841
 10        1.504   2.897   0.008   4.409
 11        1.504   2.897   0.008   4.409
 12        1.505   2.885   0.007   4.397
tot       11.806  14.081   9.870  35.756

  FORCE on cell =-STRESS in cart. coord.  units (eV):
  Direction    XX          YY          ZZ          XY          YZ          ZX
  Alpha Z    46.46596    46.46596    46.46596
  Ewald    -631.85511  -642.25523  -667.21442    -0.07437    -0.09326    21.50540
  Hartree   355.18481   357.51323   342.01619    -0.04920    -0.05741    12.72044
  E(xc)    -154.50044  -154.51220  -154.56261    -0.00019     0.00001     0.04916
  Local    -620.76836  -609.60427  -570.45053     0.12511     0.14508   -33.74855
  n-local   534.17827   531.26645   531.19901    -0.00152     0.00002     0.31579
  augment    11.84301    11.81207    11.70430    -0.00009     0.00002     0.01514
  Kinetic   581.37911   580.86850   582.59342     0.00056     0.00440    -0.74592
  Fock     -120.91122  -121.23557  -121.19792    -0.00017     0.00006     0.01755
  Total       1.01602     0.31896     0.55340     0.00013    -0.00109     0.12900
  in kB       6.55073     2.05645     3.56803     0.00085    -0.00702     0.83171

 VOLUME and BASIS-vectors are now :
  energy-cutoff  :      500.00
  volume of cell :      248.50
      direct lattice vectors                 reciprocal lattice vectors
     6.290120125  0.000000000  0.000000000     0.158979476 -0.000001969  0.001001495
     0.000077694  6.273890018  0.000000000     0.000000000  0.159390744  0.000003893
    -0.039667571 -0.000153793  6.296915042     0.000000000  0.000000000  0.158807923

  length of vectors
     6.290120125  6.273890018  6.297039986     0.158982630  0.159390744  0.158807923

 FORCES acting on ions:
    Electron-Ion                     Ewald-Force                    Non-Local-Force
   0.889E+02 -.818E-01 0.171E+02   -.969E+02 0.863E-01 -.179E+02   0.731E+01 -.333E-02 0.825E+00
   -.422E+02 -.769E-02 0.336E+01   0.412E+02 0.321E-02 -.333E+01   0.141E+01 0.129E-02 0.667E-01
   0.171E+02 0.540E-01 0.496E+02   -.184E+02 -.616E-01 -.550E+02   0.135E+01 0.779E-02 0.547E+01
   0.253E+02 -.390E+02 -.177E+02   -.275E+02 0.435E+02 0.200E+02   0.223E+01 -.458E+01 -.241E+01
   0.253E+02 0.389E+02 -.178E+02   -.275E+02 -.434E+02 0.202E+02   0.224E+01 0.457E+01 -.242E+01
   -.271E+02 -.493E+02 0.271E+02   0.300E+02 0.546E+02 -.298E+02   -.297E+01 -.554E+01 0.275E+01
   -.270E+02 0.493E+02 0.270E+02   0.299E+02 -.546E+02 -.296E+02   -.296E+01 0.555E+01 0.273E+01
   -.145E+02 -.753E-01 -.586E+02   0.162E+02 0.820E-01 0.648E+02   -.182E+01 -.679E-02 -.648E+01
   -.317E+02 0.635E-01 -.104E+02   0.304E+02 -.626E-01 0.101E+02   0.114E+01 -.877E-03 0.328E+00
   -.110E+02 0.715E-01 0.416E+01   0.110E+02 -.738E-01 -.408E+01   0.600E-01 0.230E-02 -.780E-01
   -.128E+02 -.220E-01 -.173E+02   0.128E+02 0.215E-01 0.179E+02   0.344E-01 0.427E-03 -.512E+00
   0.167E+01 0.305E-01 -.696E+01   -.112E+01 -.291E-01 0.679E+01   -.551E+00 -.155E-02 0.176E+00
   -.800E+01 0.216E-02 -.499E+00   -.124E-13 0.122E-14 -.444E-14   0.747E+01 -.186E-02 0.455E+00

 POSITION                                       TOTAL-FORCE (eV/Angst)
      5.63915      6.27350      6.27384        -0.290286      0.000972     -0.026948
      0.85821      6.27280      0.15665         0.510930     -0.003114      0.097251
      5.40518      6.27196      5.19958         0.122560      0.000842      0.376288
      5.26698      0.90190      0.45292         0.156711     -0.330039     -0.173962
      5.26573      5.37368      0.45579         0.157188      0.328919     -0.174647
      1.26776      0.84227      6.03329        -0.266008     -0.488066      0.224412
      1.26657      5.42716      6.03557        -0.265848      0.491595      0.223573
      1.13753     -0.00001      1.16715        -0.203589     -0.000488     -0.582298
      2.97634      3.13707      2.99511         0.008373     -0.000126      0.004613
      2.64610      3.13606      6.12444         0.045324     -0.000092     -0.003977
      2.72152      0.00020      3.18965         0.039200     -0.000096      0.020007
      6.03902      3.13830      2.81942        -0.014555     -0.000308      0.015688
    total drift:                               -0.009458      0.001164      0.019511

  FREE ENERGIE OF THE ION-ELECTRON SYSTEM (eV)
  free  energy   TOTEN  =       -59.87863416 eV

  energy  without entropy=      -59.87863416  energy(sigma->0) =      -59.87863416

 writing wavefunctions

 total charge

# of ion     s       p       d       tot
  1        0.844   1.760   0.000   2.604
  2        1.226   2.788   0.000   4.014
  3        0.638   0.046   0.000   0.684
  4        0.637   0.046   0.000   0.683
  5        0.637   0.046   0.000   0.683
  6        0.599   0.080   0.000   0.679
  7        0.599   0.080   0.000   0.679
  8        0.594   0.080   0.000   0.674
  9        1.519   0.477   9.846  11.841
 10        1.504   2.897   0.008   4.409
 11        1.504   2.897   0.008   4.409
 12        1.505   2.885   0.007   4.397
tot       11.806  14.081   9.870  35.756