 vasp.5.4.1 24Jun15 (build Nov 25 2015 16:39:35) complex

 executed on         CrayXC-Intel date 2016.09.26  11:52:17

 INCAR:
 POTCAR:    PAW_PBE Cd 06Sep2000
 POTCAR:    PAW_PBE Te 08Apr2002

 POTCAR:    PAW_PBE Cd 06Sep2000
   VRHFIN =Cd : s2 d10

   TITEL  = PAW_PBE Cd 06Sep2000
   POMASS =  112.411; ZVAL   =   12.000    mass and valenz
   ENMAX  =  274.336; ENMIN  =  205.752 eV

 POTCAR:    PAW_PBE Te 08Apr2002
   VRHFIN =Te: s2p4

   TITEL  = PAW_PBE Te 08Apr2002
   POMASS =  127.600; ZVAL   =    6.000    mass and valenz
   ENMAX  =  174.982; ENMIN  =  131.236 eV

  PAW_PBE Cd 06Sep2000                  :
  PAW_PBE Te 08Apr2002                  :

 POSCAR: CdTe (ICSD, 295K, Rabadanov 2001)
  positions in direct lattice
  velocities in cartesian coordinates
 exchange correlation table for  LEXCH =       14
   RHO(1)=    0.500       N(1)  =     2000
   RHO(2)=  100.500       N(2)  =     4000

 ion  position               nearest neighbor table
   1  0.000  0.000  0.000-   2 2.81   2 2.81   2 2.81   2 2.81
   2  0.250  0.250  0.250-   1 2.81   1 2.81   1 2.81   1 2.81

  LATTYP: Found a face centered cubic cell.
 ALAT       =     6.4827000000

  Lattice vectors:

 A1 = (   3.2413500000,   3.2413500000,   0.0000000000)
 A2 = (   3.2413500000,   0.0000000000,  -3.2413500000)
 A3 = (   0.0000000000,   3.2413500000,  -3.2413500000)

Analysis of symmetry for initial positions (statically):
 Subroutine PRICEL returns:
 Original cell was already a primitive cell.

 Routine SETGRP: Setting up the symmetry group for a
 face centered cubic supercell.

 Subroutine GETGRP returns: Found 24 space group operations
 (whereof 24 operations were pure point group operations)
 out of a pool of 48 trial point group operations.

The static configuration has the point symmetry T_d .

Analysis of symmetry for dynamics (positions and initial velocities):
 Subroutine PRICEL returns:
 Original cell was already a primitive cell.

[...]

The dynamic configuration has the point symmetry T_d .

Analysis of structural, dynamic, and magnetic symmetry:
 Subroutine PRICEL returns:
 Original cell was already a primitive cell.

 Routine SETGRP: Setting up the symmetry group for a
 face centered cubic supercell.

 Subroutine GETGRP returns: Found  3 space group operations
 (whereof  3 operations were pure point group operations)
 out of a pool of 48 trial point group operations.

The (compounded) configuration has the point symmetry C_3 .

 Subroutine INISYM returns: Found  3 space group operations
 (whereof  3 operations are pure point group operations),
 and found     1 'primitive' translations

 KPOINTS: Automatically generated mesh
  k-points in reciprocal lattice
Space group operators:
 irot       det(A)        alpha          n_x          n_y          n_z        tau_x        tau_y        tau_z
    1     1.000000     0.000000     1.000000     0.000000     0.000000     0.000000     0.000000     0.000000
    2     1.000000   120.000000     0.577350     0.577350     0.577350     0.000000     0.000000     0.000000
    3     1.000000   120.000000    -0.577350    -0.577350    -0.577350     0.000000     0.000000     0.000000

 I would recommend the setting:
   dimension x,y,z NGX =    33 NGY =   33 NGZ =   33
 SYSTEM =  Name
 POSCAR =  CdTe (ICSD, 295K, Rabadanov 2001)

 Startparameter for this run:
   NWRITE =      2    write-flag & timer
   PREC   = accura    normal or accurate (medium, high low for compatibility)
   ISTART =      1    job   : 0-new  1-cont  2-samecut
   ICHARG =     11    charge: 1-file 2-atom 10-const
   ISPIN  =      1    spin polarized calculation?
   LNONCOLLINEAR =      T non collinear calculations
   LSORBIT =      T    spin-orbit coupling
   INIWAV =      1    electr: 0-lowe 1-rand  2-diag
   LASPH  =      F    aspherical Exc in radial PAW
   METAGGA=      F    non-selfconsistent MetaGGA calc.

 Electronic Relaxation 1
   ENCUT  =  500.0 eV  36.75 Ry    6.06 a.u.   8.36  8.36  8.36*2*pi/ulx,y,z
   ENINI  =  500.0     initial cutoff
   ENAUG  =  456.1 eV  augmentation charge cutoff
   NELM   =     60;   NELMIN=  5; NELMDL=  0     # of ELM steps
   EDIFF  = 0.1E-05   stopping-criterion for ELM
   LREAL  =      F    real-space projection
   NLSPLINE    = F    spline interpolate recip. space projectors
   LCOMPAT=      F    compatible to vasp.4.4
   GGA_COMPAT  = T    GGA compatible to vasp.4.4-vasp.4.6
   LMAXPAW     = -100 max onsite density
   LMAXMIX     =    2 max onsite mixed and CHGCAR
   VOSKOWN=      0    Vosko Wilk Nusair interpolation
   ROPT   =    0.00000   0.00000
 Ionic relaxation
   EDIFFG = -.5E-02   stopping-criterion for IOM
   NSW    =      0    number of steps for IOM
   NBLOCK =      1;   KBLOCK =      1    inner block; outer block
   IBRION =     -1    ionic relax: 0-MD 1-quasi-New 2-CG
   NFREE  =      1    steps in history (QN), initial steepest desc. (CG)
   ISIF   =      3    stress and relaxation
   IWAVPR =     10    prediction:  0-non 1-charg 2-wave 3-comb
   ISYM   =      2    0-nonsym 1-usesym 2-fastsym
   LCORR  =      T    Harris-Foulkes like correction to forces

   POTIM  = 0.5000    time-step for ionic-motion
   TEIN   =    0.0    initial temperature
   TEBEG  =    0.0;   TEEND  =   0.0 temperature during run
   SMASS  =  -3.00    Nose mass-parameter (am)
   estimated Nose-frequenzy (Omega)   =  0.10E-29 period in steps =****** mass=  -0.480E-27a.u.
   SCALEE = 1.0000    scale energy and forces
   NPACO  =    256;   APACO  = 16.0  distance and # of slots for P.C.
   PSTRESS=    0.0 pullay stress

  Mass of Ions in am
   POMASS = 112.41127.60
  Ionic Valenz
   ZVAL   =  12.00  6.00
  Atomic Wigner-Seitz radii
  virtual crystal weights
   VCA    =   1.00  1.00
   NELECT =      18.0000    total number of electrons
   NUPDOWN=      -1.0000    fix difference up-down

 DOS related values:
   EMIN   =  10.00;   EMAX   =-10.00  energy-range for DOS
   EFERMI =   0.00
   ISMEAR =     0;   SIGMA  =   0.01  broadening in eV -4-tet -1-fermi 0-gaus

 Electronic relaxation 2 (details)
   IALGO  =     38    algorithm
   LDIAG  =      T    sub-space diagonalisation (order eigenvalues)
   LSUBROT=      F    optimize rotation matrix (better conditioning)
   TURBO    =      0    0=normal 1=particle mesh
   IRESTART =      0    0=no restart 2=restart with 2 vectors
   NREBOOT  =      0    no. of reboots
   NMIN     =      0    reboot dimension
   EREF     =   0.00    reference energy to select bands
   IMIX   =      4    mixing-type and parameters
     AMIX     =   0.40;   BMIX     =  1.00
     AMIX_MAG =   1.60;   BMIX_MAG =  1.00
     AMIN     =   0.01
     WC   =   100.;   INIMIX=   1;  MIXPRE=   1;  MAXMIX= -45

 Intra band minimization:
   WEIMIN = 0.0000     energy-eigenvalue tresh-hold
   EBREAK =  0.89E-08  absolut break condition
   DEPER  =   0.30     relativ break condition

   TIME   =   0.40     timestep for ELM

  volume/ion in A,a.u.               =      34.05       229.81
  Fermi-wavevector in a.u.,A,eV,Ry     =   1.050581  1.985311 15.017042  1.103721
  Thomas-Fermi vector in A             =   2.185590

 Write flags
   LWAVE  =      T    write WAVECAR
   LCHARG =      T    write CHGCAR
   LVTOT  =      F    write LOCPOT, total local potential
   LVHAR  =      F    write LOCPOT, Hartree potential only
   LELF   =      F    write electronic localiz. function (ELF)
   LORBIT =     10    0 simple, 1 ext, 2 COOP (PROOUT)

 Dipole corrections
   LMONO  =      F    monopole corrections only (constant potential shift)
   LDIPOL =      F    correct potential (dipole corrections)
   IDIPOL =      0    1-x, 2-y, 3-z, 4-all directions
   EPSILON=  1.0000000 bulk dielectric constant

 Exchange correlation treatment:
   GGA     =    PS    GGA type
   VOSKOWN=      0    Vosko Wilk Nusair interpolation
   LHFCALC =     F    Hartree Fock is set to
   LHFONE  =     F    Hartree Fock one center treatment
   AEXX    =    0.0000 exact exchange contribution

 Linear response parameters
   LEPSILON=     F    determine dielectric tensor
   LRPA    =     F    only Hartree local field effects (RPA)
   LNABLA  =     F    use nabla operator in PAW spheres
   LVEL    =     F    velocity operator in full k-point grid
   LINTERFAST=   F  fast interpolation
   KINTER  =     0    interpolate to denser k-point grid
   CSHIFT  =0.1000    complex shift for real part using Kramers Kronig
   OMEGAMAX=  -1.0    maximum frequency
   DEG_THRESHOLD= 0.2000000E-02 threshold for treating states as degnerate
   RTIME   =    0.100 relaxation time in fs

 Orbital magnetization related:
   ORBITALMAG=     F  switch on orbital magnetization
   LCHIMAG   =     F  perturbation theory with respect to B field
   DQ        =  0.001000  dq finite difference perturbation B field

 Static calculation
 charge density and potential remain constant during run
 non collinear spin polarized calculation
 Variant of blocked Davidson
 Davidson routine will perform the subspace rotation
 perform sub-space diagonalisation
    after iterative eigenvector-optimisation
 no mixing
 using additional bands           19
 reciprocal scheme for non local part
 use partial core corrections
 calculate Harris-corrections to forces
   (improved forces if not selfconsistent)
 use gradient corrections
 WARNING: stress and forces are not correct
  (second derivative of E(xc) not defined)
 use of overlap-Matrix (Vanderbilt PP)
 Gauss-broadening in eV      SIGMA  =   0.01

  energy-cutoff  :      500.00
  volume of cell :       68.11
      direct lattice vectors                 reciprocal lattice vectors
     3.241350000  3.241350000  0.000000000     0.154256714  0.154256714  0.154256714
     3.241350000  0.000000000 -3.241350000     0.154256714 -0.154256714 -0.154256714
     0.000000000  3.241350000 -3.241350000    -0.154256714  0.154256714 -0.154256714

  length of vectors
     4.583961130  4.583961130  4.583961130     0.267180466  0.267180466  0.267180466

 old parameters found on file WAVECAR:
  energy-cutoff  :      500.00
  volume of cell :       68.11
      direct lattice vectors                 reciprocal lattice vectors
     3.241350000  3.241350000  0.000000000     0.154256714  0.154256714  0.154256714
     3.241350000  0.000000000 -3.241350000     0.154256714 -0.154256714 -0.154256714
     0.000000000  3.241350000 -3.241350000    -0.154256714  0.154256714 -0.154256714

  length of vectors

 k-points in units of 2pi/SCALE and weight: Automatically generated mesh
   0.00000000  0.00000000  0.00000000       0.005
   0.16666667  0.16666667  0.16666667       0.005
   0.33333333  0.33333333  0.33333333       0.005
   0.50000000  0.50000000  0.50000000       0.005
  -0.33333333 -0.33333333 -0.33333333       0.005
  -0.16666667 -0.16666667 -0.16666667       0.005
   0.16666667 -0.16666667 -0.16666667       0.014
   0.33333333  0.00000000  0.00000000       0.014
   0.50000000  0.16666667  0.16666667       0.014
   0.66666667  0.33333333  0.33333333       0.014
  -0.16666667 -0.50000000 -0.50000000       0.014
   0.00000000 -0.33333333 -0.33333333       0.014
   0.33333333 -0.33333333 -0.33333333       0.014
   0.50000000 -0.16666667 -0.16666667       0.014
   0.66666667  0.00000000  0.00000000       0.014
[...]
 k-point 92 :   0.0315 0.0000 0.0315  plane waves:    3510
 k-point 93 :   0.0336 0.0000 0.0336  plane waves:    3510
 k-point 94 :   0.0357 0.0000 0.0357  plane waves:    3510
 k-point 95 :   0.0378 0.0000 0.0378  plane waves:    3510
 k-point 96 :   0.0399 0.0000 0.0399  plane waves:    3526
 k-point 97 :   0.0420 0.0000 0.0420  plane waves:    3526
 k-point 98 :   0.0441 0.0000 0.0441  plane waves:    3526
 k-point 99 :   0.0462 0.0000 0.0462  plane waves:    3526
 k-point ** :   0.0483 0.0000 0.0483  plane waves:    3526
 k-point ** :   0.0504 0.0000 0.0504  plane waves:    3526
 k-point ** :   0.0525 0.0000 0.0525  plane waves:    3526
 k-point ** :   0.0546 0.0000 0.0546  plane waves:    3526
 k-point ** :   0.0567 0.0000 0.0567  plane waves:    3526
 k-point ** :   0.0588 0.0000 0.0588  plane waves:    3494
 k-point ** :   0.0609 0.0000 0.0609  plane waves:    3494
 k-point ** :   0.0630 0.0000 0.0630  plane waves:    3494
 k-point ** :   0.0651 0.0000 0.0651  plane waves:    3494
 k-point ** :   0.0672 0.0000 0.0672  plane waves:    3494
 k-point ** :   0.0693 0.0000 0.0693  plane waves:    3494
 k-point ** :   0.0714 0.0000 0.0714  plane waves:    3494
 k-point ** :   0.0735 0.0000 0.0735  plane waves:    3494
 k-point ** :   0.0756 0.0000 0.0756  plane waves:    3494
 k-point ** :   0.0777 0.0000 0.0777  plane waves:    3494
 k-point ** :   0.0798 0.0000 0.0798  plane waves:    3494
 k-point ** :   0.0819 0.0000 0.0819  plane waves:    3494
 k-point ** :   0.0840 0.0000 0.0840  plane waves:    3494
 k-point ** :   0.0861 0.0000 0.0861  plane waves:    3494
 k-point ** :   0.0882 0.0000 0.0882  plane waves:    3494
 k-point ** :   0.0903 0.0000 0.0903  plane waves:    3496
 k-point ** :   0.0924 0.0000 0.0924  plane waves:    3488
 k-point ** :   0.0945 0.0000 0.0945  plane waves:    3488
 k-point ** :   0.0966 0.0000 0.0966  plane waves:    3488
 k-point ** :   0.0987 0.0000 0.0987  plane waves:    3488
 k-point ** :   0.1008 0.0000 0.1008  plane waves:    3488
 k-point ** :   0.1029 0.0000 0.1029  plane waves:    3488
 k-point ** :   0.1050 0.0000 0.1050  plane waves:    3488
 k-point ** :   0.1071 0.0000 0.1071  plane waves:    3488
 k-point ** :   0.1092 0.0000 0.1092  plane waves:    3488
 k-point ** :   0.1113 0.0000 0.1113  plane waves:    3488
 k-point ** :   0.1134 0.0000 0.1134  plane waves:    3488
 k-point ** :   0.1155 0.0000 0.1155  plane waves:    3480
 k-point ** :   0.1176 0.0000 0.1176  plane waves:    3480
 k-point ** :   0.1197 0.0000 0.1197  plane waves:    3480
 k-point ** :   0.1218 0.0000 0.1218  plane waves:    3480
 k-point ** :   0.1239 0.0000 0.1239  plane waves:    3480
 k-point ** :   0.1261 0.0000 0.1261  plane waves:    3480
 k-point ** :   0.1282 0.0000 0.1282  plane waves:    3480
 k-point ** :   0.1303 0.0000 0.1303  plane waves:    3480
 k-point ** :   0.1324 0.0000 0.1324  plane waves:    3480
 k-point ** :   0.1345 0.0000 0.1345  plane waves:    3480
 k-point ** :   0.1366 0.0000 0.1366  plane waves:    3480
 k-point ** :   0.1387 0.0000 0.1387  plane waves:    3496
 k-point ** :   0.1408 0.0000 0.1408  plane waves:    3496
 k-point ** :   0.1429 0.0000 0.1429  plane waves:    3496
 k-point ** :   0.1450 0.0000 0.1450  plane waves:    3496
 k-point ** :   0.1471 0.0000 0.1471  plane waves:    3496
 k-point ** :   0.1492 0.0000 0.1492  plane waves:    3496
 k-point ** :   0.1513 0.0000 0.1513  plane waves:    3472
 k-point ** :   0.1534 0.0000 0.1534  plane waves:    3472
 k-point ** :   0.1555 0.0000 0.1555  plane waves:    3472
 k-point ** :   0.1576 0.0000 0.1576  plane waves:    3472
 k-point ** :   0.1597 0.0000 0.1597  plane waves:    3472
 k-point ** :   0.1618 0.0000 0.1618  plane waves:    3472
 k-point ** :   0.1639 0.0000 0.1639  plane waves:    3472
 k-point ** :   0.1660 0.0000 0.1660  plane waves:    3472
 k-point ** :   0.1681 0.0000 0.1681  plane waves:    3472
 k-point ** :   0.1702 0.0000 0.1702  plane waves:    3488
 k-point ** :   0.1723 0.0000 0.1723  plane waves:    3488
[...]
 k-point ** :   0.4759 0.4759 0.4759  plane waves:    3436
 k-point ** :   0.4777 0.4777 0.4777  plane waves:    3436
 k-point ** :   0.4794 0.4794 0.4794  plane waves:    3436
 k-point ** :   0.4811 0.4811 0.4811  plane waves:    3436
 k-point ** :   0.4828 0.4828 0.4828  plane waves:    3436
 k-point ** :   0.4845 0.4845 0.4845  plane waves:    3436
 k-point ** :   0.4863 0.4863 0.4863  plane waves:    3436
 k-point ** :   0.4880 0.4880 0.4880  plane waves:    3436
 k-point ** :   0.4897 0.4897 0.4897  plane waves:    3436
 k-point ** :   0.4914 0.4914 0.4914  plane waves:    3436
 k-point ** :   0.4931 0.4931 0.4931  plane waves:    3436
 k-point ** :   0.4948 0.4948 0.4948  plane waves:    3436
 k-point ** :   0.4966 0.4966 0.4966  plane waves:    3436
 k-point ** :   0.4983 0.4983 0.4983  plane waves:    3436
 k-point ** :   0.5000 0.5000 0.5000  plane waves:    3436

 maximum and minimum number of plane-waves per node :       170      118

 maximum number of plane-waves:      3550
 maximum index in each direction:
   IXMAX=    8   IYMAX=    8   IZMAX=    8
   IXMIN=   -8   IYMIN=   -8   IZMIN=   -9

 NGX is ok and might be reduce to  34
 NGY is ok and might be reduce to  34
 NGZ is ok and might be reduce to  36

 parallel 3D FFT for wavefunctions:
    minimum data exchange during FFTs selected (reduces bandwidth)
 parallel 3D FFT for charge:
    minimum data exchange during FFTs selected (reduces bandwidth)

 initial charge density was supplied:
 number of electron      17.9999996 magnetization       0.0000046      0.0000046      0.0000046
 keeping initial charge density in first step

 Maximum index for augmentation-charges         1676 (set IRDMAX)

 First call to EWALD:  gamma=   0.434
 Maximum number of real-space cells 3x 3x 3
 Maximum number of reciprocal cells 3x 3x 3

 FEWALD executed in parallel

----------------------------------------- Iteration    1(   1)  ---------------------------------------

 eigenvalue-minimisations  : 73256
 total energy-change (2. order) :-0.5612046E+01  (-0.1414656E-04)
 number of electron      17.9999996 magnetization       0.0000046      0.0000046      0.0000046
 augmentation part       17.9999996 magnetization       0.0000046      0.0000046      0.0000046

 Free energy of the ion-electron system (eV)
  alpha Z        PSCENC =        50.17222034
  Ewald energy   TEWEN  =     -1044.83138452
  -Hartree energ DENC   =      -502.28984124
  -exchange      EXHF   =         0.00000000
  -V(xc)+E(xc)   XCENC  =       -20.68850750
  PAW double counting   =      1768.51706691    -1697.33015719
  entropy T*S    EENTRO =        -0.00000000
  eigenvalues    EBANDS =       -75.36685813
  atomic energy  EATOM  =      1516.20541573
  Solvation  Ediel_sol  =         0.00000000
  free energy    TOTEN  =        -5.61204560 eV

  energy without entropy =       -5.61204560  energy(sigma->0) =       -5.61204560

[...]

 eigenvalue-minimisations  : 64980
 total energy-change (2. order) :-0.1527951E-09  (-0.1620989E-09)
 number of electron      17.9999996 magnetization       0.0000046      0.0000046      0.0000046
 augmentation part       17.9999996 magnetization       0.0000046      0.0000046      0.0000046

[...]

----------------------------------------- Iteration    1(   5)  ---------------------------------------

 total charge

# of ion     s       p       d       tot
  1        0.474   0.320   9.527  10.321
  2        1.352   2.047   0.022   3.420
tot        1.825   2.367   9.549  13.741

 magnetization (x)

[...]

 magnetization (y)

[...]

 magnetization (z)

[...]

 eigenvalue-minimisations  : 68812
 total energy-change (2. order) : 0.2046363E-11  (-0.3677241E-10)
 number of electron      17.9999996 magnetization       0.0000046      0.0000046      0.0000046
 augmentation part       17.9999996 magnetization       0.0000046      0.0000046      0.0000046

 Free energy of the ion-electron system (eV)
  alpha Z        PSCENC =        50.17222034
  Ewald energy   TEWEN  =     -1044.83138452
  -Hartree energ DENC   =      -502.28984124
  -exchange      EXHF   =         0.00000000
  -V(xc)+E(xc)   XCENC  =       -20.68850750
  PAW double counting   =      1768.51706691    -1697.33015719
  entropy T*S    EENTRO =        -0.00000000
  eigenvalues    EBANDS =       -75.36685826
  atomic energy  EATOM  =      1516.20541573
  Solvation  Ediel_sol  =         0.00000000
  free energy    TOTEN  =        -5.61204573 eV

  energy without entropy =       -5.61204573  energy(sigma->0) =       -5.61204573

 average (electrostatic) potential at core
  the test charge radii are     1.0698  1.1897
  (the norm of the test charge is              1.0000)
       1 -38.9769       2 -91.2274

 E-fermi :   2.5489     XC(G=0):  -8.7762     alpha+bet : -7.4227

 k-point     1 :       0.0000    0.0000    0.0000
  band No.  band energies     occupation
      1      -8.9926      1.00000
      2      -8.9926      1.00000
      3      -6.3601      1.00000
      4      -6.3601      1.00000
      5      -6.3601      1.00000
      6      -6.3601      1.00000
      7      -5.8178      1.00000
      8      -5.8178      1.00000
      9      -5.5997      1.00000
     10      -5.5997      1.00000
     11      -5.5997      1.00000
     12      -5.5997      1.00000
     13       1.6417      1.00000
     14       1.6417      1.00000
     15       2.4815      1.00000
     16       2.4815      1.00000
     17       2.4815      1.00000
     18       2.4815      1.00000
     19       2.8680      0.00000
     20       2.8680      0.00000
     21       6.5221      0.00000
     22       6.5221      0.00000
     23       6.8571      0.00000
     24       6.8571      0.00000
     25       6.8571      0.00000
     26       6.8571      0.00000
     27       9.5017      0.00000
     28       9.5018      0.00000

[...]

 k-point  1072 :       0.5000    0.5000    0.5000
  band No.  band energies     occupation
      1      -8.5906      1.00000
      2      -8.5906      1.00000
      3      -6.3410      1.00000
      4      -6.3410      1.00000
      5      -6.0955      1.00000
      6      -6.0955      1.00000
      7      -5.7152      1.00000
      8      -5.7152      1.00000
      9      -5.5437      1.00000
     10      -5.5437      1.00000
     11      -5.2778      1.00000
     12      -5.2778      1.00000
     13      -2.2827      1.00000
     14      -2.2827      1.00000
     15       1.1584      1.00000
     16       1.1584      1.00000
     17       1.6736      1.00000
     18       1.6736      1.00000
     19       3.9365      0.00000
     20       3.9366      0.00000
     21       7.2629      0.00000
     22       7.2629      0.00000
     23       7.3966      0.00000
     24       7.3966      0.00000
     25       9.1377      0.00000
     26       9.1377      0.00000
     27      10.7178      0.00000
     28      10.7179      0.00000

 soft charge-density along one line, spin component           1
         0         1         2         3         4         5         6         7         8         9
 total charge-density along one line

[...]

 soft charge-density along one line, spin component           4
         0         1         2         3         4         5         6         7         8         9
 total charge-density along one line

------------------------ aborting loop because EDIFF is reached ----------------------------------------

[...]

  FORCE on cell =-STRESS in cart. coord.  units (eV):
  Direction    XX          YY          ZZ          XY          YZ          ZX
  Alpha Z    50.17222    50.17222    50.17222
  Ewald    -348.27726  -348.27726  -348.27726     0.00000     0.00000     0.00000
  Hartree   167.43101   167.43101   167.43101     0.00000     0.00000     0.00000
  E(xc)     -86.29880   -86.29880   -86.29880    -0.00000     0.00000     0.00000
  Local     -17.88666   -17.88666   -17.88666     0.00001    -0.00001    -0.00001
  n-local    24.35868    26.80966    26.32471     0.58486    -1.26122     0.67636
  augment     6.24111     6.24111     6.24111    -0.00001     0.00001     0.00001
  Kinetic   201.59678   203.71439   203.50363     0.73184    -1.38474     0.65290
  Fock        0.00000     0.00000     0.00000     0.00000     0.00000     0.00000
  Total       0.15090     0.15090     0.15090    -0.00000    -0.00000    -0.00000
  in kB       3.54966     3.54966     3.54966    -0.00002    -0.00002    -0.00002

 VOLUME and BASIS-vectors are now :
  energy-cutoff  :      500.00
  volume of cell :       68.11
      direct lattice vectors                 reciprocal lattice vectors
     3.241350000  3.241350000  0.000000000     0.154256714  0.154256714  0.154256714
     3.241350000  0.000000000 -3.241350000     0.154256714 -0.154256714 -0.154256714
     0.000000000  3.241350000 -3.241350000    -0.154256714  0.154256714 -0.154256714

  length of vectors
     4.583961130  4.583961130  4.583961130     0.267180466  0.267180466  0.267180466

 FORCES acting on ions
    electron-ion (+dipol)            ewald-force                    non-local-force                 convergence-correction
   -.464E-06 -.464E-06 0.184E-06   -.744E-14 -.454E-14 0.998E-14   -.117E-05 -.117E-05 -.117E-05   0.116E-05 0.116E-05 0.116E-05
   -.104E-06 -.104E-06 -.459E-06   0.759E-14 0.606E-14 -.102E-13   0.560E-06 0.560E-06 0.560E-06   0.953E-07 0.953E-07 0.949E-07
   -.568E-06 -.568E-06 -.275E-06   0.152E-15 0.152E-14 -.238E-15   -.611E-06 -.611E-06 -.611E-06   0.125E-05 0.125E-05 0.126E-05

 POSITION                                       TOTAL-FORCE (eV/Angst)
      0.00000      0.00000      0.00000        -0.000000     -0.000000     -0.000000
      1.62068      1.62068     -1.62068         0.000000      0.000000      0.000000
    total drift:                                0.000000      0.000000      0.000000

  FREE ENERGIE OF THE ION-ELECTRON SYSTEM (eV)
  free  energy   TOTEN  =        -5.61204573 eV

  energy  without entropy=       -5.61204573  energy(sigma->0) =       -5.61204573

 writing wavefunctions

 Spin-Orbit-Coupling matrix elements

 Ion:    1  E_soc:     -0.0615420
 l=   1
     0.0000000    -0.0032497    -0.0032497
    -0.0032497     0.0000000    -0.0032497
    -0.0032497    -0.0032497     0.0000000
 l=   2
     0.0000000    -0.0014077     0.0000000    -0.0014077    -0.0055996
    -0.0014077     0.0000000    -0.0041997    -0.0014077    -0.0013999
     0.0000000    -0.0041997     0.0000000    -0.0041997     0.0000000
    -0.0014077    -0.0014077    -0.0041997     0.0000000    -0.0013999
    -0.0055996    -0.0013999     0.0000000    -0.0013999     0.0000000
 l=   3
     0.0000000     0.0000000     0.0000000     0.0000000     0.0000000     0.0000000     0.0000000
     0.0000000     0.0000000     0.0000000     0.0000000     0.0000000     0.0000000     0.0000000
     0.0000000     0.0000000     0.0000000     0.0000000     0.0000000     0.0000000     0.0000000
     0.0000000     0.0000000     0.0000000     0.0000000     0.0000000     0.0000000     0.0000000
     0.0000000     0.0000000     0.0000000     0.0000000     0.0000000     0.0000000     0.0000000
     0.0000000     0.0000000     0.0000000     0.0000000     0.0000000     0.0000000     0.0000000
     0.0000000     0.0000000     0.0000000     0.0000000     0.0000000     0.0000000     0.0000000

 Ion:    2  E_soc:     -0.1985210
 l=   1
     0.0000000    -0.0330113    -0.0330113
    -0.0330113     0.0000000    -0.0330113
    -0.0330113    -0.0330113     0.0000000
 l=   2
     0.0000000    -0.0000305     0.0000000    -0.0000305    -0.0000450
    -0.0000305     0.0000000    -0.0000338    -0.0000305    -0.0000113
     0.0000000    -0.0000338     0.0000000    -0.0000338     0.0000000
    -0.0000305    -0.0000305    -0.0000338     0.0000000    -0.0000113
    -0.0000450    -0.0000113     0.0000000    -0.0000113     0.0000000
 l=   3
     0.0000000     0.0000000     0.0000000     0.0000000     0.0000000     0.0000000     0.0000000
     0.0000000     0.0000000     0.0000000     0.0000000     0.0000000     0.0000000     0.0000000
     0.0000000     0.0000000     0.0000000     0.0000000     0.0000000     0.0000000     0.0000000
     0.0000000     0.0000000     0.0000000     0.0000000     0.0000000     0.0000000     0.0000000
     0.0000000     0.0000000     0.0000000     0.0000000     0.0000000     0.0000000     0.0000000
     0.0000000     0.0000000     0.0000000     0.0000000     0.0000000     0.0000000     0.0000000
     0.0000000     0.0000000     0.0000000     0.0000000     0.0000000     0.0000000     0.0000000

 total charge

[...]

 magnetization (x)

[...]

 magnetization (y)

[...]

 magnetization (z)

# of ion     s       p       d       tot
  1       -0.000   0.000  -0.000  -0.000
  2        0.000  -0.000  -0.000  -0.000
tot       -0.000   0.000  -0.000  -0.000