 vasp.5.3.5 31Mar14 (build Apr 15 2015 10:45:18) complex

 executed on             LinuxIFC date 2016.02.16  12:04:56

 INCAR:
 POTCAR:   PAW C 31May2000
 POTCAR:   PAW N 31May2000
 POTCAR:   PAW H 06May1998
 POTCAR:   PAW Pb_d 30Apr1998
 POTCAR:   PAW I 03Oct2001

 POTCAR:   PAW C 31May2000
   VRHFIN =C: s2p2

   TITEL  = PAW C 31May2000
   POMASS =   12.011; ZVAL   =    4.000    mass and valenz
   ENMAX  =  400.000; ENMIN  =  300.000 eV
   QCUT   =   -5.516; QGAM   =   11.032    optimization parameters

   Description
     l     E      TYP  RCUT    TYP  RCUT
     0   .000     23  1.200
     0   .000     23  1.200
     1   .000     23  1.500
     1  2.500     23  1.500
     2   .000      7  1.500

 POTCAR:   PAW N 31May2000
   VRHFIN =N: s2p3

[...]

 POTCAR:   PAW H 06May1998
   VRHFIN =H: ultrasoft test

   TITEL  = PAW H 06May1998
   POMASS =    1.000; ZVAL   =    1.000    mass and valenz
   ENMAX  =  250.000; ENMIN  =  200.000 eV
   QCUT   =   -5.742; QGAM   =   11.483    optimization parameters

[...]

 POTCAR:   PAW Pb_d 30Apr1998
   VRHFIN =Pb:

   TITEL  = PAW Pb_d 30Apr1998
   POMASS =  207.200; ZVAL   =   14.000    mass and valenz
   ENMAX  =  237.817; ENMIN  =  178.363 eV
   QCUT   =   -4.181; QGAM   =    8.362    optimization parameters

[...]

 POTCAR:   PAW I 03Oct2001
   VRHFIN =I : s2p5

   TITEL  = PAW I 03Oct2001
   POMASS =  126.904; ZVAL   =    7.000    mass and valenz
   ENMAX  =  175.712; ENMIN  =  131.784 eV
   QCUT   =   -3.594; QGAM   =    7.187    optimization parameters

   Description
     l     E      TYP  RCUT    TYP  RCUT
     0   .000     23  2.300
     0   .000     23  2.300
     1   .000     23  2.300
     1   .000     23  2.300
     2   .000     23  2.300
     3  -.100     23  2.300

 PAW C 31May2000                        :
 PAW N 31May2000                        :
 PAW H 06May1998                        :
 PAW Pb_d 30Apr1998                     :
 PAW I 03Oct2001                        :

 POSCAR: MA-Pb-I (Github)
  positions in direct lattice
  velocities in cartesian coordinates
 exchange correlation table for  LEXCH =        2
   RHO(1)=    0.500       N(1)  =     2000
   RHO(2)=  100.500       N(2)  =     4000

 ion  position               nearest neighbor table
   1  0.903  1.000  0.996-   3 1.10   5 1.10   4 1.10   2 1.48
   2  0.137  1.000  0.025-   6 1.04   7 1.04   8 1.05   1 1.48
   3  0.865  1.000  0.826-   1 1.10
   4  0.838  0.144  0.072-   1 1.10
   5  0.838  0.857  0.072-   1 1.10
   6  0.208  0.134  0.958-   2 1.04
   7  0.207  0.865  0.958-   2 1.04
   8  0.182  0.000  0.185-   2 1.05
   9  0.476  0.500  0.476-  12 3.07  10 3.15  11 3.15  11 3.15  10 3.18  12 3.23
  10  0.427  0.500  0.973-   9 3.15   9 3.18
  11  0.436  0.000  0.507-   9 3.15   9 3.15
  12  0.963  0.500  0.448-   9 3.07   9 3.23

  LATTYP: Found a simple monoclinic cell.
 ALAT       =     6.2901201248
 B/A-ratio  =     0.9974197462
 C/A-ratio  =     1.4105278383
 COS(beta)  =    -0.7044835581

  Lattice vectors:

 A1 = (  -6.2901201248,   0.0000000000,   0.0000000000)
 A2 = (  -0.0000776940,  -6.2738900180,   0.0000000000)
 A3 = (   6.2504525538,  -0.0001537931,   6.2969150416)

Analysis of symmetry for initial positions (statically):
 Subroutine PRICEL returns:
 Original cell was already a primitive cell.

 Routine SETGRP: Setting up the symmetry group for a
 simple monoclinic supercell.

 Subroutine GETGRP returns: Found  1 space group operations
 (whereof  1 operations were pure point group operations)
 out of a pool of  4 trial point group operations.

The static configuration has the point symmetry C_1 .

Analysis of symmetry for dynamics (positions and initial velocities):
 Subroutine PRICEL returns:
 Original cell was already a primitive cell.

 Routine SETGRP: Setting up the symmetry group for a
 simple monoclinic supercell.

 Subroutine GETGRP returns: Found  1 space group operations
 (whereof  1 operations were pure point group operations)
 out of a pool of  4 trial point group operations.

The dynamic configuration has the point symmetry C_1 .

 KPOINTS: Automatically generated mesh
  k-points in reciprocal lattice
Space group operators:
 irot       det(A)        alpha          n_x          n_y          n_z        tau_x        tau_y        tau_z
    1     1.000000     0.000000     1.000000     0.000000     0.000000     0.000000     0.000000     0.000000

 I would recommend the setting:
   dimension x,y,z NGX =    46 NGY =   46 NGZ =   46
 SYSTEM =  Name
 POSCAR =  MA-Pb-I (Github)

 Startparameter for this run:
   NWRITE =      2    write-flag & timer
   PREC   = accura    normal or accurate (medium, high low for compatibility)
   ISTART =      0    job   : 0-new  1-cont  2-samecut
   ICHARG =     11    charge: 1-file 2-atom 10-const
   ISPIN  =      1    spin polarized calculation?
   LNONCOLLINEAR =      F non collinear calculations
   LSORBIT =      F    spin-orbit coupling
   INIWAV =      1    electr: 0-lowe 1-rand  2-diag
   LASPH  =      F    aspherical Exc in radial PAW
   METAGGA=      F    non-selfconsistent MetaGGA calc.

 Electronic Relaxation 1
   ENCUT  =  500.0 eV  36.75 Ry    6.06 a.u.  11.47 11.44 11.48*2*pi/ulx,y,z
   ENINI  =  500.0     initial cutoff
   ENAUG  =  644.9 eV  augmentation charge cutoff
   NELM   =     60;   NELMIN=  2; NELMDL=  0     # of ELM steps
   EDIFF  = 0.1E-05   stopping-criterion for ELM
   LREAL  =      F    real-space projection
   NLSPLINE    = F    spline interpolate recip. space projectors
   LCOMPAT=      F    compatible to vasp.4.4
   GGA_COMPAT  = T    GGA compatible to vasp.4.4-vasp.4.6
   LMAXPAW     = -100 max onsite density
   LMAXMIX     =    2 max onsite mixed and CHGCAR
   VOSKOWN=      0    Vosko Wilk Nusair interpolation
   ROPT   =    0.00000   0.00000   0.00000   0.00000
   ROPT   =    0.00000
 Ionic relaxation
   EDIFFG = -.5E-02   stopping-criterion for IOM
   NSW    =      1    number of steps for IOM
   NBLOCK =      1;   KBLOCK =      1    inner block; outer block
   IBRION =      2    ionic relax: 0-MD 1-quasi-New 2-CG
   NFREE  =      1    steps in history (QN), initial steepest desc. (CG)
   ISIF   =      3    stress and relaxation
   IWAVPR =     11    prediction:  0-non 1-charg 2-wave 3-comb
   ISYM   =      2    0-nonsym 1-usesym 2-fastsym
   LCORR  =      T    Harris-Foulkes like correction to forces

   POTIM  = 0.5000    time-step for ionic-motion
   TEIN   =    0.0    initial temperature
   TEBEG  =    0.0;   TEEND  =   0.0 temperature during run
   SMASS  =  -3.00    Nose mass-parameter (am)
   estimated Nose-frequenzy (Omega)   =  0.10E-29 period in steps =****** mass=  -0.904E-27a.u.
   SCALEE = 1.0000    scale energy and forces
   NPACO  =    256;   APACO  = 16.0  distance and # of slots for P.C.
   PSTRESS=    0.0 pullay stress

  Mass of Ions in am
   POMASS =  12.01 14.00  1.00207.20126.90
  Ionic Valenz
   ZVAL   =   4.00  5.00  1.00 14.00  7.00
  Atomic Wigner-Seitz radii
  virtual crystal weights
   VCA    =   1.00  1.00  1.00  1.00  1.00
   NELECT =      50.0000    total number of electrons
   NUPDOWN=      -1.0000    fix difference up-down

 DOS related values:
   EMIN   =  10.00;   EMAX   =-10.00  energy-range for DOS
   EFERMI =   0.00
   ISMEAR =     0;   SIGMA  =   0.01  broadening in eV -4-tet -1-fermi 0-gaus

 Electronic relaxation 2 (details)
   IALGO  =     38    algorithm
   LDIAG  =      T    sub-space diagonalisation (order eigenvalues)
   LSUBROT=      F    optimize rotation matrix (better conditioning)
   TURBO    =      0    0=normal 1=particle mesh
   IRESTART =      0    0=no restart 2=restart with 2 vectors
   NREBOOT  =      0    no. of reboots
   NMIN     =      0    reboot dimension
   EREF     =   0.00    reference energy to select bands
   IMIX   =      4    mixing-type and parameters
     AMIX     =   0.40;   BMIX     =  1.00
     AMIX_MAG =   1.60;   BMIX_MAG =  1.00
     AMIN     =   0.01
     WC   =   100.;   INIMIX=   1;  MIXPRE=   1;  MAXMIX= -45

 Intra band minimization:
   WEIMIN = 0.0010     energy-eigenvalue tresh-hold
   EBREAK =  0.78E-08  absolut break condition
   DEPER  =   0.30     relativ break condition

   TIME   =   0.40     timestep for ELM

  volume/ion in A,a.u.               =      20.71       139.75
  Fermi-wavevector in a.u.,A,eV,Ry     =   0.959306  1.812825 12.520994  0.920267
  Thomas-Fermi vector in A             =   2.088490

 Write flags
   LWAVE  =      T    write WAVECAR
   LCHARG =      T    write CHGCAR
   LVTOT  =      F    write LOCPOT, total local potential
   LVHAR  =      F    write LOCPOT, Hartree potential only
   LELF   =      F    write electronic localiz. function (ELF)
   LORBIT =     10    0 simple, 1 ext, 2 COOP (PROOUT)

 Dipole corrections
   LMONO  =      F    monopole corrections only (constant potential shift)
   LDIPOL =      F    correct potential (dipole corrections)
   IDIPOL =      0    1-x, 2-y, 3-z, 4-all directions
   EPSILON=  1.0000000 bulk dielectric constant

 Core level calculations are selected ICORELEVEL =  1
 Exchange correlation treatment:
   GGA     =    --    GGA type
   VOSKOWN=      0    Vosko Wilk Nusair interpolation
   LHFCALC =     F    Hartree Fock is set to
   LHFONE  =     F    Hartree Fock one center treatment
   AEXX    =    0.0000 exact exchange contribution

 Linear response parameters
   LEPSILON=     F    determine dielectric tensor
   LRPA    =     F    only Hartree local field effects (RPA)
   LNABLA  =     F    use nabla operator in PAW spheres
   LVEL    =     F    velocity operator in full k-point grid
   LINTERFAST=   F  fast interpolation
   KINTER  =     0    interpolate to denser k-point grid
   CSHIFT  =0.1000    complex shift for real part using Kramers Kronig
   OMEGAMAX=  -1.0    maximum frequency
   DEG_THRESHOLD= 0.2000000E-02 threshold for treating states as degnerate
   RTIME   =    0.100 relaxation time in fs

 Orbital magnetization related:
   ORBITALMAG=     F  switch on orbital magnetization
   LCHIMAG   =     F  perturbation theory with respect to B field
   DQ        =  0.001000  dq finite difference perturbation B field

 conjugate gradient relaxation of ions
 charge density and potential remain constant during run
 non-spin polarized calculation
 Variant of blocked Davidson
 Davidson routine will perform the subspace rotation
 perform sub-space diagonalisation
    after iterative eigenvector-optimisation
 no mixing
 using additional bands            7
 reciprocal scheme for non local part
 use partial core corrections
 calculate Harris-corrections to forces
   (improved forces if not selfconsistent)
 use of overlap-Matrix (Vanderbilt PP)
 Gauss-broadening in eV      SIGMA  =   0.01

  energy-cutoff  :      500.00
  volume of cell :      248.50
      direct lattice vectors                 reciprocal lattice vectors
     6.290120125  0.000000000  0.000000000     0.158979476 -0.000001969  0.001001495
     0.000077694  6.273890018  0.000000000     0.000000000  0.159390744  0.000003893
    -0.039667571 -0.000153793  6.296915042     0.000000000  0.000000000  0.158807923

  length of vectors
     6.290120125  6.273890018  6.297039986     0.158982630  0.159390744  0.158807923

[...]
 k-point ** :   0.5000 0.1667 0.5000  plane waves:    6304
 k-point ** :  -0.3333 0.1667 0.5000  plane waves:    6302
 k-point ** :  -0.1667 0.1667 0.5000  plane waves:    6305
 k-point ** :   0.0000 0.3333 0.5000  plane waves:    6298
 k-point ** :   0.1667 0.3333 0.5000  plane waves:    6304
 k-point ** :   0.3333 0.3333 0.5000  plane waves:    6291
 k-point ** :   0.5000 0.3333 0.5000  plane waves:    6270
 k-point ** :  -0.3333 0.3333 0.5000  plane waves:    6293
 k-point ** :  -0.1667 0.3333 0.5000  plane waves:    6304
 k-point ** :   0.0000 0.5000 0.5000  plane waves:    6276
 k-point ** :   0.1667 0.5000 0.5000  plane waves:    6300
 k-point ** :   0.3333 0.5000 0.5000  plane waves:    6282
 k-point ** :   0.5000 0.5000 0.5000  plane waves:    6272
 k-point ** :   0.0000 0.0000 0.0000  plane waves:    6329
 k-point ** :   0.0000 0.0050 0.0000  plane waves:    6333
 k-point ** :   0.0000 0.0100 0.0000  plane waves:    6337
 k-point ** :   0.0000 0.0150 0.0000  plane waves:    6335
 k-point ** :   0.0000 0.0200 0.0000  plane waves:    6331
 k-point ** :   0.0000 0.0250 0.0000  plane waves:    6329
 k-point ** :   0.0000 0.0300 0.0000  plane waves:    6327
 k-point ** :   0.0000 0.0350 0.0000  plane waves:    6327
 k-point ** :   0.0000 0.0400 0.0000  plane waves:    6329
 k-point ** :   0.0000 0.0450 0.0000  plane waves:    6325
 k-point ** :   0.0000 0.0500 0.0000  plane waves:    6325
 k-point ** :   0.0000 0.0550 0.0000  plane waves:    6328
 k-point ** :   0.0000 0.0600 0.0000  plane waves:    6327
 k-point ** :   0.0000 0.0650 0.0000  plane waves:    6327
 k-point ** :   0.0000 0.0700 0.0000  plane waves:    6325
 k-point ** :   0.0000 0.0750 0.0000  plane waves:    6325
 k-point ** :   0.0000 0.0800 0.0000  plane waves:    6325
 k-point ** :   0.0000 0.0850 0.0000  plane waves:    6325
 k-point ** :   0.0000 0.0900 0.0000  plane waves:    6328
 k-point ** :   0.0000 0.0950 0.0000  plane waves:    6327
 k-point ** :   0.0000 0.1000 0.0000  plane waves:    6321
 k-point ** :   0.0000 0.1050 0.0000  plane waves:    6321
 k-point ** :   0.0000 0.1100 0.0000  plane waves:    6317
 k-point ** :   0.0000 0.1150 0.0000  plane waves:    6315
 k-point ** :   0.0000 0.1200 0.0000  plane waves:    6314
 k-point ** :   0.0000 0.1250 0.0000  plane waves:    6315
 k-point ** :   0.0000 0.1300 0.0000  plane waves:    6313
 k-point ** :   0.0000 0.1350 0.0000  plane waves:    6313
 k-point ** :   0.0000 0.1400 0.0000  plane waves:    6319
 k-point ** :   0.0000 0.1450 0.0000  plane waves:    6317
 k-point ** :   0.0000 0.1500 0.0000  plane waves:    6317
 k-point ** :   0.0000 0.1550 0.0000  plane waves:    6323
 k-point ** :   0.0000 0.1600 0.0000  plane waves:    6325
 k-point ** :   0.0000 0.1650 0.0000  plane waves:    6327
 k-point ** :   0.0000 0.1700 0.0000  plane waves:    6329
 k-point ** :   0.0000 0.1750 0.0000  plane waves:    6331
 k-point ** :   0.0000 0.1800 0.0000  plane waves:    6334
 k-point ** :   0.0000 0.1850 0.0000  plane waves:    6335
 k-point ** :   0.0000 0.1900 0.0000  plane waves:    6333
 k-point ** :   0.0000 0.1950 0.0000  plane waves:    6333
 k-point ** :   0.0000 0.2000 0.0000  plane waves:    6329
 k-point ** :   0.0000 0.2050 0.0000  plane waves:    6331
 k-point ** :   0.0000 0.2100 0.0000  plane waves:    6329
 k-point ** :   0.0000 0.2150 0.0000  plane waves:    6331
 k-point ** :   0.0000 0.2200 0.0000  plane waves:    6327
 k-point ** :   0.0000 0.2250 0.0000  plane waves:    6321
 k-point ** :   0.0000 0.2300 0.0000  plane waves:    6322
[...]
 k-point ** :   0.0536 0.5000 0.0536  plane waves:    6345
 k-point ** :   0.0500 0.5000 0.0500  plane waves:    6350
 k-point ** :   0.0464 0.5000 0.0464  plane waves:    6348
 k-point ** :   0.0429 0.5000 0.0429  plane waves:    6348
 k-point ** :   0.0393 0.5000 0.0393  plane waves:    6350
 k-point ** :   0.0357 0.5000 0.0357  plane waves:    6352
 k-point ** :   0.0321 0.5000 0.0321  plane waves:    6354
 k-point ** :   0.0286 0.5000 0.0286  plane waves:    6356
 k-point ** :   0.0250 0.5000 0.0250  plane waves:    6360
 k-point ** :   0.0214 0.5000 0.0214  plane waves:    6360
 k-point ** :   0.0179 0.5000 0.0179  plane waves:    6366
 k-point ** :   0.0143 0.5000 0.0143  plane waves:    6364
 k-point ** :   0.0107 0.5000 0.0107  plane waves:    6362
 k-point ** :   0.0071 0.5000 0.0071  plane waves:    6366
 k-point ** :   0.0036 0.5000 0.0036  plane waves:    6362

 maximum and minimum number of plane-waves per node :      6366     6238

 maximum number of plane-waves:      6366
 maximum index in each direction:
   IXMAX=   11   IYMAX=   11   IZMAX=   11
   IXMIN=  -11   IYMIN=  -11   IZMIN=  -11

 NGX is ok and might be reduce to  46
 NGY is ok and might be reduce to  46
 NGZ is ok and might be reduce to  46

 serial   3D FFT for wavefunctions
 parallel 3D FFT for charge:
    minimum data exchange during FFTs selected (reduces bandwidth)

 initial charge density was supplied:
 number of electron      49.9999995 magnetization
 keeping initial charge density in first step

 Maximum index for augmentation-charges         6278 (set IRDMAX)

 First call to EWALD:  gamma=   0.282
 Maximum number of real-space cells 3x 3x 3
 Maximum number of reciprocal cells 3x 3x 3

 FEWALD executed in parallel

----------------------------------------- Iteration    1(   1)  ---------------------------------------

 eigenvalue-minimisations  : 48896
 total energy-change (2. order) : 0.3505830E+03  (-0.1990583E+04)
 number of electron      49.9999995 magnetization
 augmentation part       49.9999995 magnetization

 Free energy of the ion-electron system (eV)
  alpha Z        PSCENC =        42.82368006
  Ewald energy   TEWEN  =     -1941.32201603
  -Hartree energ DENC   =     -1049.80577597
  -exchange      EXHF   =         0.00000000
  -V(xc)+E(xc)   XCENC  =        51.78893835
  PAW double counting   =      1935.71949023    -1849.22048684
  entropy T*S    EENTRO =        -0.00005468
  eigenvalues    EBANDS =        56.63279271
  atomic energy  EATOM  =      3103.96639798
  free energy    TOTEN  =       350.58296581 eV

  energy without entropy =      350.58302050  energy(sigma->0) =      350.58299315

[...]

 eigenvalue-minimisations  : 61184
 total energy-change (2. order) :-0.3654848E+03  (-0.3522521E+03)
 number of electron      49.9999995 magnetization
 augmentation part       49.9999995 magnetization

[...]

----------------------------------------- Iteration    1(   8)  ---------------------------------------

 eigenvalue-minimisations  : 51192
 total energy-change (2. order) :-0.3076102E-06  (-0.3076371E-06)
 number of electron      49.9999995 magnetization
 augmentation part       49.9999995 magnetization

 Free energy of the ion-electron system (eV)
  alpha Z        PSCENC =        42.82368006
  Ewald energy   TEWEN  =     -1941.32201603
  -Hartree energ DENC   =     -1049.80577597
  -exchange      EXHF   =         0.00000000
  -V(xc)+E(xc)   XCENC  =        51.78893835
  PAW double counting   =      1935.71949023    -1849.22048684
  entropy T*S    EENTRO =        -0.00000000
  eigenvalues    EBANDS =      -348.78404316
  atomic energy  EATOM  =      3103.96639798
  free energy    TOTEN  =       -54.83381537 eV

  energy without entropy =      -54.83381537  energy(sigma->0) =      -54.83381537

 the core state eigenenergies are
   1-  1s   -260.9737
   2-  1s   -373.5299
   3-
   4-
   5-
   6-
   7-
   8-
   9-  1s -87449.3110  2s -15650.4016  2p -13443.9474  3s  -3754.4375  3p  -3120.7523
       3d  -2472.9780  4s   -844.4756  4p   -636.3991  4d   -395.0818  5s   -137.3997
       4f   -127.4714  5p    -79.3278
  10-  1s -32774.8526  2s  -5064.1978  2p  -4551.7755  3s  -1016.2726  3p   -849.5643
       3d   -598.2878  4s   -172.1889  4p   -119.6946  4d    -42.5098
  11-  1s -32774.7877  2s  -5064.1331  2p  -4551.7107  3s  -1016.2080  3p   -849.4997
       3d   -598.2232  4s   -172.1247  4p   -119.6304  4d    -42.4457
  12-  1s -32774.5294  2s  -5063.8712  2p  -4551.4494  3s  -1015.9408  3p   -849.2325
       3d   -597.9566  4s   -171.8486  4p   -119.3532  4d    -42.1663

 E-fermi :   1.4572     XC(G=0):  -8.0146     alpha+bet : -7.2670

 k-point     1 :       0.0000    0.0000    0.0000
  band No.  band energies     occupation
      1     -18.1546      2.00000
      2     -15.2007      2.00000
      3     -15.1772      2.00000
      4     -15.1285      2.00000
      5     -15.1112      2.00000
      6     -15.1070      2.00000
      7     -11.2622      2.00000
      8     -10.9562      2.00000
      9     -10.2526      2.00000
     10      -9.9755      2.00000
     11      -7.8298      2.00000
     12      -7.6667      2.00000
     13      -5.8666      2.00000
     14      -5.4798      2.00000
     15      -3.5374      2.00000
     16      -3.5218      2.00000
     17      -2.2362      2.00000
     18      -2.2357      2.00000
     19      -2.0833      2.00000
     20      -0.1090      2.00000
     21      -0.0749      2.00000
     22       0.0030      2.00000
     23       0.1319      2.00000
     24       0.4019      2.00000
     25       0.4133      2.00000
     26       4.7396      0.00000
     27       5.7855      0.00000
     28       5.9235      0.00000
     29       6.1012      0.00000
     30       6.2325      0.00000
     31       6.3492      0.00000
     32       7.0401      0.00000

[...]

 k-point   764 :       0.0036    0.5000    0.0036
  band No.  band energies     occupation
      1     -18.1533      2.00000
      2     -15.1929      2.00000
      3     -15.1711      2.00000
      4     -15.1292      2.00000
      5     -15.1112      2.00000
      6     -15.1078      2.00000
      7     -11.2432      2.00000
      8     -10.7704      2.00000
      9     -10.4714      2.00000
     10     -10.0368      2.00000
     11      -7.7372      2.00000
     12      -7.6767      2.00000
     13      -6.0621      2.00000
     14      -5.8798      2.00000
     15      -3.5839      2.00000
     16      -3.5257      2.00000
     17      -2.1240      2.00000
     18      -1.9371      2.00000
     19      -0.6779      2.00000
     20      -0.3900      2.00000
     21      -0.2292      2.00000
     22       0.1029      2.00000
     23       0.1453      2.00000
     24       0.3846      2.00000
     25       0.5236      2.00000
     26       3.6243      0.00000
     27       5.8542      0.00000
     28       6.0159      0.00000
     29       6.2430      0.00000
     30       6.6832      0.00000
     31       6.7404      0.00000
     32       7.2876      0.00000

 soft charge-density along one line, spin component           1
         0         1         2         3         4         5         6         7         8         9
 total charge-density along one line

------------------------ aborting loop because EDIFF is reached ----------------------------------------

 total charge

# of ion     s       p       d       tot
  1        0.832   1.782   0.000   2.614
  2        1.212   2.768   0.000   3.979
  3        0.619   0.046   0.000   0.665
  4        0.618   0.046   0.000   0.665
  5        0.618   0.046   0.000   0.665
  6        0.587   0.079   0.000   0.666
  7        0.587   0.079   0.000   0.666
  8        0.583   0.079   0.000   0.662
  9        1.477   0.536   9.836  11.849
 10        1.512   2.792   0.009   4.313
 11        1.512   2.792   0.009   4.314
 12        1.513   2.781   0.008   4.302
tot       11.670  13.828   9.862  35.360

  FORCE on cell =-STRESS in cart. coord.  units (eV):
  Direction    XX          YY          ZZ          XY          YZ          ZX
  Alpha Z    42.82368    42.82368    42.82368
  Ewald    -631.85511  -642.25523  -667.21442    -0.07437    -0.09326    21.50540
  Hartree   353.50485   355.88545   340.41831    -0.04948    -0.05747    12.74346
  E(xc)    -197.10645  -197.11385  -197.10903     0.00002    -0.00002    -0.00606
  Local    -625.84624  -614.48485  -575.38158     0.12583     0.14503   -33.84312
  n-local   462.12455   459.13263   459.04306    -0.00169     0.00004     0.35299
  augment    11.57427    11.62253    11.51647    -0.00011     0.00006     0.01723
  Kinetic   583.16943   583.16296   584.93825     0.00099     0.00427    -0.84392
  Fock        0.00000     0.00000     0.00000     0.00000     0.00000     0.00000
  Total      -1.61103    -1.22668    -0.96526     0.00121    -0.00135    -0.07402
  in kB     -10.38703    -7.90895    -6.22347     0.00777    -0.00872    -0.47726

 VOLUME and BASIS-vectors are now :
  energy-cutoff  :      500.00
  volume of cell :      248.50
      direct lattice vectors                 reciprocal lattice vectors
     6.290120125  0.000000000  0.000000000     0.158979476 -0.000001969  0.001001495
     0.000077694  6.273890018  0.000000000     0.000000000  0.159390744  0.000003893
    -0.039667571 -0.000153793  6.296915042     0.000000000  0.000000000  0.158807923

  length of vectors
     6.290120125  6.273890018  6.297039986     0.158982630  0.159390744  0.158807923

 FORCES acting on ions
    electron-ion (+dipol)            ewald-force                    non-local-force                 convergence-correction
   0.889E+02 -.818E-01 0.171E+02   -.969E+02 0.863E-01 -.179E+02   0.826E+01 -.370E-02 0.927E+00   -.179E-02 0.177E-04 -.222E-03
   -.424E+02 -.776E-02 0.333E+01   0.412E+02 0.321E-02 -.333E+01   0.826E+00 0.178E-02 -.289E-01   0.162E-03 0.105E-03 -.108E-03
   0.171E+02 0.538E-01 0.495E+02   -.184E+02 -.616E-01 -.550E+02   0.133E+01 0.769E-02 0.541E+01   -.181E-03 0.357E-05 -.928E-05
   0.252E+02 -.389E+02 -.176E+02   -.275E+02 0.435E+02 0.200E+02   0.220E+01 -.453E+01 -.238E+01   -.180E-03 -.182E-04 -.365E-04
   0.253E+02 0.388E+02 -.177E+02   -.275E+02 -.434E+02 0.202E+02   0.221E+01 0.451E+01 -.239E+01   -.182E-03 0.241E-04 -.387E-04
   -.270E+02 -.490E+02 0.270E+02   0.300E+02 0.546E+02 -.298E+02   -.291E+01 -.544E+01 0.271E+01   0.249E-03 0.387E-03 -.211E-03
   -.269E+02 0.491E+02 0.269E+02   0.299E+02 -.546E+02 -.296E+02   -.290E+01 0.545E+01 0.269E+01   0.252E-03 -.380E-03 -.216E-03
   -.144E+02 -.751E-01 -.583E+02   0.162E+02 0.820E-01 0.648E+02   -.177E+01 -.670E-02 -.636E+01   0.157E-03 0.117E-04 0.450E-03
   -.315E+02 0.635E-01 -.104E+02   0.304E+02 -.626E-01 0.101E+02   0.104E+01 -.735E-03 0.275E+00   -.454E-03 -.198E-03 0.489E-03
   -.110E+02 0.718E-01 0.415E+01   0.110E+02 -.738E-01 -.408E+01   0.405E-01 0.212E-02 -.637E-01   0.368E-03 -.425E-04 -.204E-03
   -.129E+02 -.220E-01 -.174E+02   0.128E+02 0.215E-01 0.179E+02   0.315E-01 0.398E-03 -.488E+00   0.379E-03 0.456E-04 0.182E-03
   0.163E+01 0.306E-01 -.696E+01   -.112E+01 -.291E-01 0.679E+01   -.532E+00 -.137E-02 0.138E+00   0.236E-04 -.514E-04 0.162E-03
   -.782E+01 0.194E-02 -.451E+00   -.124E-13 0.122E-14 -.444E-14   0.782E+01 -.187E-02 0.450E+00   -.120E-02 -.946E-04 0.237E-03

 POSITION                                       TOTAL-FORCE (eV/Angst)
      5.63915      6.27350      6.27384         0.314916      0.000802      0.034462
      0.85821      6.27280      0.15665        -0.332222     -0.002660     -0.026644
      5.40518      6.27196      5.19958        -0.019011     -0.000070     -0.051176
      5.26698      0.90190      0.45292        -0.029305      0.044516      0.020055
      5.26573      5.37368      0.45579        -0.029510     -0.045047      0.020478
      1.26776      0.84227      6.03329         0.057713      0.104610     -0.040959
      1.26657      5.42716      6.03557         0.056801     -0.102510     -0.039681
      1.13753     -0.00001      1.16715         0.030622      0.000234      0.117338
      2.97634      3.13707      2.99511         0.002202      0.000003      0.001394
      2.64610      3.13606      6.12444        -0.018240      0.000075      0.000597
      2.72152      0.00020      3.18965        -0.016462     -0.000010     -0.006414
      6.03902      3.13830      2.81942        -0.017502      0.000059     -0.029450
    total drift:                               -0.000564     -0.000031     -0.000501

  FREE ENERGIE OF THE ION-ELECTRON SYSTEM (eV)
  free  energy   TOTEN  =       -54.83381537 eV

  energy  without entropy=      -54.83381537  energy(sigma->0) =      -54.83381537

 writing wavefunctions

 total charge

# of ion     s       p       d       tot
  1        0.832   1.782   0.000   2.614
  2        1.212   2.768   0.000   3.979
  3        0.619   0.046   0.000   0.665
  4        0.618   0.046   0.000   0.665
  5        0.618   0.046   0.000   0.665
  6        0.587   0.079   0.000   0.666
  7        0.587   0.079   0.000   0.666
  8        0.583   0.079   0.000   0.662
  9        1.477   0.536   9.836  11.849
 10        1.512   2.792   0.009   4.313
 11        1.512   2.792   0.009   4.314
 12        1.513   2.781   0.008   4.302
tot       11.670  13.828   9.862  35.360