 vasp.5.4.1 24Jun15 (build Nov 25 2015 16:39:35) complex

 executed on         CrayXC-Intel date 2016.06.22  00:47:58

 INCAR:
 POTCAR:    PAW_PBE C 08Apr2002
 POTCAR:    PAW_PBE N 08Apr2002
 POTCAR:    PAW_PBE H 15Jun2001
 POTCAR:    PAW_PBE Pb_d 06Sep2000
 POTCAR:    PAW_PBE I 08Apr2002
 POTCAR:    PAW_PBE C 08Apr2002
   VRHFIN =C: s2p2

   TITEL  = PAW_PBE C 08Apr2002
   POMASS =   12.011; ZVAL   =    4.000    mass and valenz
   ENMAX  =  400.000; ENMIN  =  300.000 eV

 POTCAR:    PAW_PBE N 08Apr2002
   VRHFIN =N: s2p3

[...]

 POTCAR:    PAW_PBE H 15Jun2001
   VRHFIN =H: ultrasoft test

   TITEL  = PAW_PBE H 15Jun2001
   POMASS =    1.000; ZVAL   =    1.000    mass and valenz
   ENMAX  =  250.000; ENMIN  =  200.000 eV

 POTCAR:    PAW_PBE Pb_d 06Sep2000
   VRHFIN =Pb:

   TITEL  = PAW_PBE Pb_d 06Sep2000
   POMASS =  207.200; ZVAL   =   14.000    mass and valenz
   ENMAX  =  237.835; ENMIN  =  178.376 eV

 POTCAR:    PAW_PBE I 08Apr2002
   VRHFIN =I : s2p5

   TITEL  = PAW_PBE I 08Apr2002
   POMASS =  126.904; ZVAL   =    7.000    mass and valenz
   ENMAX  =  175.647; ENMIN  =  131.735 eV

  PAW_PBE C 08Apr2002                   :
  PAW_PBE N 08Apr2002                   :
  PAW_PBE H 15Jun2001                   :
  PAW_PBE Pb_d 06Sep2000                :
  PAW_PBE I 08Apr2002                   :

 POSCAR: C N H Pb I
  positions in direct lattice
 exchange correlation table for  LEXCH =       14
   RHO(1)=    0.500       N(1)  =     2000
   RHO(2)=  100.500       N(2)  =     4000

 ion  position               nearest neighbor table
   1  0.203  0.250  0.219-  33 1.10  25 1.10  17 1.10   9 1.49
   2  0.691  0.250  0.239-  34 1.10  26 1.10  18 1.10  10 1.49
   3  0.191  0.750  0.239-  35 1.10  27 1.10  19 1.10  11 1.49
   4  0.703  0.750  0.219-  36 1.10  28 1.10  20 1.10  12 1.49
   5  0.203  0.250  0.719-  37 1.10  29 1.10  21 1.10  13 1.49
   6  0.691  0.250  0.739-  38 1.10  30 1.10  22 1.10  14 1.49
   7  0.191  0.750  0.739-  39 1.10  31 1.10  23 1.10  15 1.49
   8  0.703  0.750  0.719-  40 1.10  32 1.10  24 1.10  16 1.49
   9  0.306  0.250  0.274-  57 1.04  41 1.05  49 1.05   1 1.49
  10  0.803  0.250  0.273-  42 1.05  50 1.05  58 1.05   2 1.49
  11  0.303  0.750  0.273-  43 1.05  51 1.05  59 1.05   3 1.49
  12  0.806  0.750  0.274-  60 1.04  44 1.05  52 1.05   4 1.49
  13  0.306  0.250  0.774-  61 1.04  45 1.05  53 1.05   5 1.49
  14  0.803  0.250  0.773-  46 1.05  54 1.05  62 1.05   6 1.49
  15  0.303  0.750  0.773-  47 1.05  55 1.05  63 1.05   7 1.49
  16  0.806  0.750  0.774-  64 1.04  48 1.05  56 1.05   8 1.49
  17  0.220  0.250  0.134-   1 1.10
  18  0.690  0.250  0.152-   2 1.10
  19  0.190  0.750  0.152-   3 1.10
  20  0.720  0.750  0.134-   4 1.10
  21  0.220  0.250  0.634-   5 1.10
  22  0.690  0.250  0.652-   6 1.10
  23  0.190  0.750  0.652-   7 1.10
  24  0.720  0.750  0.634-   8 1.10
  25  0.158  0.322  0.242-   1 1.10
  26  0.650  0.322  0.269-   2 1.10
  27  0.150  0.822  0.269-   3 1.10
  28  0.658  0.822  0.242-   4 1.10
  29  0.158  0.322  0.742-   5 1.10
  30  0.650  0.322  0.769-   6 1.10
  31  0.150  0.822  0.769-   7 1.10
  32  0.658  0.822  0.742-   8 1.10
  33  0.158  0.177  0.242-   1 1.10
  34  0.651  0.177  0.270-   2 1.10
  35  0.151  0.677  0.270-   3 1.10
  36  0.658  0.677  0.242-   4 1.10
  37  0.158  0.177  0.742-   5 1.10
  38  0.651  0.177  0.770-   6 1.10
  39  0.151  0.677  0.770-   7 1.10
  40  0.658  0.677  0.742-   8 1.10
  41  0.352  0.318  0.255-   9 1.05
  42  0.844  0.318  0.246-  10 1.05
  43  0.344  0.818  0.246-  11 1.05
  44  0.852  0.818  0.255-  12 1.05
  45  0.352  0.318  0.755-  13 1.05
  46  0.844  0.318  0.746-  14 1.05
  47  0.344  0.818  0.746-  15 1.05
  48  0.852  0.818  0.755-  16 1.05
  49  0.352  0.182  0.256-   9 1.05
  50  0.844  0.182  0.246-  10 1.05
  51  0.344  0.682  0.246-  11 1.05
  52  0.852  0.682  0.256-  12 1.05
  53  0.352  0.182  0.756-  13 1.05
  54  0.844  0.182  0.746-  14 1.05
  55  0.344  0.682  0.746-  15 1.05
  56  0.852  0.682  0.756-  16 1.05
  57  0.296  0.250  0.356-   9 1.04
  58  0.810  0.250  0.355-  10 1.05
  59  0.310  0.750  0.355-  11 1.05
  60  0.796  0.750  0.356-  12 1.04
[...]
  82  0.930  0.250  0.016-  72 3.16  70 3.17
  83  0.430  0.750  0.016-  69 3.16  71 3.17
  84  0.970  0.750  0.008-  70 3.14  72 3.14
  85  0.470  0.250  0.508-  67 3.14  65 3.14
  86  0.930  0.250  0.516-  68 3.16  66 3.17
  87  0.430  0.750  0.516-  65 3.16  67 3.17
  88  0.970  0.750  0.508-  66 3.14  68 3.14
  89  0.216  0.476  0.461-  66 3.09  65 3.26
  90  0.716  0.524  0.461-  65 3.09  66 3.26
  91  0.216  0.024  0.461-  68 3.09  67 3.26
  92  0.716  0.976  0.461-  67 3.09  68 3.26
  93  0.216  0.476  0.961-  70 3.09  69 3.26
  94  0.716  0.524  0.961-  69 3.09  70 3.26
  95  0.216  0.024  0.961-  72 3.09  71 3.26
  96  0.716  0.976  0.961-  71 3.09  72 3.26

  LATTYP: Found a triclinic cell.
 ALAT       =    17.8238589327
 B/A-ratio  =     0.6989248630
 C/A-ratio  =     1.0156975818
 COS(alpha) =     0.0001355172
 COS(beta)  =     0.5146378593
 COS(gamma) =     0.6988877578

  Lattice vectors:

 A1 = (  -0.1406063366, -12.4576271275, -12.7466742118)
 A2 = (  -0.0011956322, -12.4575380825,   0.0007464135)
 A3 = ( -12.7162481321,  -0.0020049566, -12.8856194186)

Analysis of symmetry for initial positions (statically):
 Subroutine PRICEL returns following result:

[...]

   4 primitive cells build up your supercell.

 Routine SETGRP: Setting up the symmetry group for a
 triclinic supercell.

 Subroutine GETGRP returns: Found  1 space group operations
 (whereof  1 operations were pure point group operations)
 out of a pool of  2 trial point group operations.

The static configuration has the point symmetry C_1 .

Analysis of symmetry for dynamics (positions and initial velocities):
 Subroutine PRICEL returns following result:

[...]

The dynamic configuration has the point symmetry C_1 .

Analysis of structural, dynamic, and magnetic symmetry:
 Subroutine PRICEL returns following result:

  LATTYP: Found a triclinic cell.
 ALAT       =     8.8502626515
 B/A-ratio  =     1.4075896561
 C/A-ratio  =     0.7202149489
 COS(alpha) =     0.0000518785
 COS(beta)  =     0.0156138721
 COS(gamma) =     0.7036188608

  Lattice vectors:

 A1 = (  -6.2878208978,   6.2278110854,  -0.0694726034)
 A2 = (   0.0011956322,  12.4575380825,  -0.0007464135)
 A3 = (  -0.0697053522,  -0.0000445225,  -6.3737103126)

   4 primitive cells build up your supercell.

 Routine SETGRP: Setting up the symmetry group for a
 triclinic supercell.

 Subroutine GETGRP returns: Found  1 space group operations
 (whereof  1 operations were pure point group operations)
 out of a pool of  2 trial point group operations.

The (compounded) configuration has the point symmetry C_1 .

 Subroutine INISYM returns: Found  1 space group operations
 (whereof  1 operations are pure point group operations),
 and found     4 'primitive' translations

 KPOINTS: Automatic 3x3x3

Automatic generation of k-mesh.
Space group operators:
 irot       det(A)        alpha          n_x          n_y          n_z        tau_x        tau_y        tau_z
    1     1.000000     0.000000     1.000000     0.000000     0.000000     0.000000     0.000000     0.000000

 Subroutine IBZKPT returns following result:

 Found     27 irreducible k-points:

 Following reciprocal coordinates:
            Coordinates               Weight
  0.000000  0.000000  0.000000      1.000000
  0.333333 -0.000000 -0.000000      1.000000
 -0.333333  0.000000  0.000000      1.000000
  0.000000  0.333333 -0.000000      1.000000
  0.333333  0.333333  0.000000      1.000000
 -0.333333  0.333333  0.000000      1.000000
 -0.000000 -0.333333  0.000000      1.000000
  0.333333 -0.333333 -0.000000      1.000000
 -0.333333 -0.333333 -0.000000      1.000000
  0.000000  0.000000  0.333333      1.000000
  0.333333  0.000000  0.333333      1.000000
 -0.333333  0.000000  0.333333      1.000000
  0.000000  0.333333  0.333333      1.000000
  0.333333  0.333333  0.333333      1.000000
 -0.333333  0.333333  0.333333      1.000000
  0.000000 -0.333333  0.333333      1.000000
  0.333333 -0.333333  0.333333      1.000000
 -0.333333 -0.333333  0.333333      1.000000
  0.000000  0.000000 -0.333333      1.000000
  0.333333 -0.000000 -0.333333      1.000000
 -0.333333 -0.000000 -0.333333      1.000000
 -0.000000  0.333333 -0.333333      1.000000
  0.333333  0.333333 -0.333333      1.000000
 -0.333333  0.333333 -0.333333      1.000000
 -0.000000 -0.333333 -0.333333      1.000000
  0.333333 -0.333333 -0.333333      1.000000
 -0.333333 -0.333333 -0.333333      1.000000

 Following cartesian coordinates:
            Coordinates               Weight
  0.000000  0.000000  0.000000      1.000000
  0.026507 -0.000003 -0.000290      1.000000
 -0.026507  0.000003  0.000290      1.000000
 -0.000004  0.026758 -0.000000      1.000000
  0.026503  0.026755 -0.000290      1.000000
 -0.026511  0.026760  0.000290      1.000000
  0.000004 -0.026758  0.000000      1.000000
  0.026511 -0.026760 -0.000290      1.000000
 -0.026503 -0.026755  0.000290      1.000000
 -0.000287  0.000002  0.026152      1.000000
  0.026220 -0.000001  0.025862      1.000000
 -0.026794  0.000004  0.026442      1.000000
 -0.000291  0.026759  0.026152      1.000000
  0.026215  0.026757  0.025862      1.000000
 -0.026798  0.026762  0.026442      1.000000
 -0.000283 -0.026756  0.026152      1.000000
  0.026224 -0.026759  0.025862      1.000000
 -0.026790 -0.026753  0.026442      1.000000
  0.000287 -0.000002 -0.026152      1.000000
  0.026794 -0.000004 -0.026442      1.000000
 -0.026220  0.000001 -0.025862      1.000000
  0.000283  0.026756 -0.026152      1.000000
  0.026790  0.026753 -0.026442      1.000000
 -0.026224  0.026759 -0.025862      1.000000
  0.000291 -0.026759 -0.026152      1.000000
  0.026798 -0.026762 -0.026442      1.000000
 -0.026215 -0.026757 -0.025862      1.000000

 I would recommend the setting:
   dimension x,y,z NGX =   109 NGY =  107 NGZ =  110
 SYSTEM =  MAPbI3-Cubic
 POSCAR =  C N H Pb I

 Startparameter for this run:
   NWRITE =      2    write-flag & timer
   PREC   = accura    normal or accurate (medium, high low for compatibility)
   ISTART =      0    job   : 0-new  1-cont  2-samecut
   ICHARG =      2    charge: 1-file 2-atom 10-const
   ISPIN  =      1    spin polarized calculation?
   LNONCOLLINEAR =      T non collinear calculations
   LSORBIT =      T    spin-orbit coupling
   INIWAV =      1    electr: 0-lowe 1-rand  2-diag
   LASPH  =      F    aspherical Exc in radial PAW
   METAGGA=      F    non-selfconsistent MetaGGA calc.

 Electronic Relaxation 1
   ENCUT  =  700.0 eV  51.45 Ry    7.17 a.u.  27.13 26.87 27.50*2*pi/ulx,y,z
   ENINI  =  700.0     initial cutoff
   ENAUG  =  644.9 eV  augmentation charge cutoff
   NELM   =     60;   NELMIN=  2; NELMDL= -5     # of ELM steps
   EDIFF  = 0.1E-07   stopping-criterion for ELM
   LREAL  =      F    real-space projection
   NLSPLINE    = F    spline interpolate recip. space projectors
   LCOMPAT=      F    compatible to vasp.4.4
   GGA_COMPAT  = T    GGA compatible to vasp.4.4-vasp.4.6
   LMAXPAW     = -100 max onsite density
   LMAXMIX     =    2 max onsite mixed and CHGCAR
[...]
   0.892E+01 0.340E-01 0.515E+02   -.916E+01 -.379E-01 -.569E+02   0.245E+00 0.397E-02 0.564E+01   0.591E-06 -.115E-06 0.213E-05
   0.892E+01 0.340E-01 0.515E+02   -.916E+01 -.379E-01 -.569E+02   0.245E+00 0.397E-02 0.564E+01   0.232E-06 0.827E-07 0.206E-05
   0.172E+01 0.594E-01 0.512E+02   -.878E+00 -.666E-01 -.566E+02   -.871E+00 0.731E-02 0.559E+01   -.192E-05 0.159E-06 0.178E-05
   0.172E+01 0.594E-01 0.512E+02   -.878E+00 -.666E-01 -.566E+02   -.871E+00 0.731E-02 0.559E+01   -.215E-05 -.268E-06 0.188E-05
   0.892E+01 0.340E-01 0.515E+02   -.916E+01 -.379E-01 -.569E+02   0.245E+00 0.397E-02 0.564E+01   0.515E-06 -.250E-06 0.214E-05
   0.892E+01 0.340E-01 0.515E+02   -.916E+01 -.379E-01 -.569E+02   0.245E+00 0.397E-02 0.564E+01   0.242E-06 0.234E-06 0.220E-05
   0.172E+01 0.594E-01 0.512E+02   -.878E+00 -.666E-01 -.566E+02   -.871E+00 0.731E-02 0.559E+01   -.200E-05 0.288E-06 0.192E-05
   0.325E+02 -.391E+02 -.748E+01   -.355E+02 0.437E+02 0.884E+01   0.300E+01 -.463E+01 -.137E+01   -.457E-06 -.344E-05 -.189E-06
   0.279E+02 -.392E+02 -.128E+02   -.306E+02 0.438E+02 0.147E+02   0.271E+01 -.462E+01 -.192E+01   0.138E-05 -.289E-05 -.517E-06
   0.279E+02 -.392E+02 -.128E+02   -.306E+02 0.438E+02 0.147E+02   0.271E+01 -.462E+01 -.192E+01   0.118E-05 -.251E-05 -.504E-06
   0.325E+02 -.391E+02 -.748E+01   -.355E+02 0.437E+02 0.884E+01   0.300E+01 -.463E+01 -.137E+01   -.343E-06 -.302E-05 -.118E-07
   0.325E+02 -.391E+02 -.748E+01   -.355E+02 0.437E+02 0.884E+01   0.300E+01 -.463E+01 -.137E+01   -.526E-06 -.346E-05 0.515E-07
   0.279E+02 -.392E+02 -.128E+02   -.306E+02 0.438E+02 0.147E+02   0.271E+01 -.462E+01 -.192E+01   0.150E-05 -.291E-05 -.537E-06
   0.279E+02 -.392E+02 -.128E+02   -.306E+02 0.438E+02 0.147E+02   0.271E+01 -.462E+01 -.192E+01   0.113E-05 -.251E-05 -.493E-06
   0.325E+02 -.391E+02 -.748E+01   -.355E+02 0.437E+02 0.884E+01   0.300E+01 -.463E+01 -.137E+01   -.215E-06 -.302E-05 -.832E-07
   0.325E+02 0.391E+02 -.758E+01   -.355E+02 -.437E+02 0.895E+01   0.300E+01 0.463E+01 -.138E+01   -.462E-06 0.304E-05 -.677E-07
   0.279E+02 0.392E+02 -.128E+02   -.305E+02 -.438E+02 0.147E+02   0.270E+01 0.462E+01 -.193E+01   0.133E-05 0.248E-05 -.438E-06
   0.279E+02 0.392E+02 -.128E+02   -.305E+02 -.438E+02 0.147E+02   0.270E+01 0.462E+01 -.193E+01   0.121E-05 0.290E-05 -.662E-06
   0.325E+02 0.391E+02 -.758E+01   -.355E+02 -.437E+02 0.895E+01   0.300E+01 0.463E+01 -.138E+01   -.320E-06 0.341E-05 -.952E-07
   0.325E+02 0.391E+02 -.758E+01   -.355E+02 -.437E+02 0.895E+01   0.300E+01 0.463E+01 -.138E+01   -.520E-06 0.302E-05 -.320E-07
   0.279E+02 0.392E+02 -.128E+02   -.305E+02 -.438E+02 0.147E+02   0.270E+01 0.462E+01 -.193E+01   0.150E-05 0.253E-05 -.610E-06
   0.279E+02 0.392E+02 -.128E+02   -.305E+02 -.438E+02 0.147E+02   0.270E+01 0.462E+01 -.193E+01   0.109E-05 0.283E-05 -.379E-06
   0.325E+02 0.391E+02 -.758E+01   -.355E+02 -.437E+02 0.895E+01   0.300E+01 0.463E+01 -.138E+01   -.238E-06 0.346E-05 -.719E-07
   -.349E+02 -.477E+02 0.143E+02   0.385E+02 0.531E+02 -.158E+02   -.370E+01 -.549E+01 0.151E+01   -.151E-05 -.893E-06 -.425E-06
   -.316E+02 -.485E+02 0.202E+02   0.349E+02 0.540E+02 -.225E+02   -.340E+01 -.549E+01 0.223E+01   -.330E-06 -.251E-05 0.145E-06
   -.316E+02 -.485E+02 0.202E+02   0.349E+02 0.540E+02 -.225E+02   -.340E+01 -.549E+01 0.223E+01   -.413E-06 -.201E-05 0.533E-06
   -.349E+02 -.477E+02 0.143E+02   0.385E+02 0.531E+02 -.158E+02   -.370E+01 -.549E+01 0.151E+01   -.128E-05 -.396E-06 -.596E-06
   -.349E+02 -.477E+02 0.143E+02   0.385E+02 0.531E+02 -.158E+02   -.370E+01 -.549E+01 0.151E+01   -.156E-05 -.889E-06 -.647E-06
   -.316E+02 -.485E+02 0.202E+02   0.349E+02 0.540E+02 -.225E+02   -.340E+01 -.549E+01 0.223E+01   -.294E-06 -.252E-05 0.636E-06
   -.316E+02 -.485E+02 0.202E+02   0.349E+02 0.540E+02 -.225E+02   -.340E+01 -.549E+01 0.223E+01   -.535E-06 -.209E-05 0.335E-06
   -.349E+02 -.477E+02 0.143E+02   0.385E+02 0.531E+02 -.158E+02   -.370E+01 -.549E+01 0.151E+01   -.130E-05 -.401E-06 -.505E-06
   -.349E+02 0.477E+02 0.141E+02   0.386E+02 -.531E+02 -.156E+02   -.370E+01 0.549E+01 0.150E+01   -.147E-05 0.372E-06 -.322E-06
   -.316E+02 0.485E+02 0.202E+02   0.350E+02 -.539E+02 -.224E+02   -.341E+01 0.549E+01 0.223E+01   -.307E-06 0.212E-05 0.399E-06
   -.316E+02 0.485E+02 0.202E+02   0.350E+02 -.539E+02 -.224E+02   -.341E+01 0.549E+01 0.223E+01   -.477E-06 0.249E-05 0.391E-06
   -.349E+02 0.477E+02 0.141E+02   0.386E+02 -.531E+02 -.156E+02   -.370E+01 0.549E+01 0.150E+01   -.131E-05 0.871E-06 -.834E-06
   -.349E+02 0.477E+02 0.141E+02   0.386E+02 -.531E+02 -.156E+02   -.370E+01 0.549E+01 0.150E+01   -.160E-05 0.458E-06 -.713E-06
   -.316E+02 0.485E+02 0.202E+02   0.350E+02 -.539E+02 -.224E+02   -.341E+01 0.549E+01 0.223E+01   -.281E-06 0.209E-05 0.429E-06
   -.316E+02 0.485E+02 0.202E+02   0.350E+02 -.539E+02 -.224E+02   -.341E+01 0.549E+01 0.223E+01   -.546E-06 0.249E-05 0.418E-06
   -.349E+02 0.477E+02 0.141E+02   0.386E+02 -.531E+02 -.156E+02   -.370E+01 0.549E+01 0.150E+01   -.127E-05 0.852E-06 -.324E-06
   0.996E+01 -.887E-01 -.648E+02   -.107E+02 0.991E-01 0.716E+02   0.756E+00 -.104E-01 -.698E+01   -.292E-05 -.273E-06 0.181E-07
   -.273E+01 -.537E-01 -.611E+02   0.339E+01 0.583E-01 0.677E+02   -.707E+00 -.448E-02 -.668E+01   -.502E-06 -.313E-06 -.109E-05
   -.273E+01 -.537E-01 -.611E+02   0.339E+01 0.583E-01 0.677E+02   -.707E+00 -.448E-02 -.668E+01   -.610E-06 0.259E-06 -.103E-05
   0.996E+01 -.887E-01 -.648E+02   -.107E+02 0.991E-01 0.716E+02   0.756E+00 -.104E-01 -.698E+01   -.284E-05 0.333E-06 -.966E-07
[...]
   -.695E+00 -.604E-01 -.163E+02   0.541E+00 0.617E-01 0.169E+02   0.158E+00 -.105E-02 -.677E+00   0.637E-05 -.730E-06 -.484E-06
   -.275E+02 -.478E-01 -.161E+02   0.275E+02 0.491E-01 0.166E+02   -.641E-01 -.101E-02 -.516E+00   0.798E-06 -.260E-05 0.710E-07
   -.275E+02 -.478E-01 -.161E+02   0.275E+02 0.491E-01 0.166E+02   -.641E-01 -.101E-02 -.516E+00   0.836E-06 -.199E-05 0.187E-06
   -.695E+00 -.604E-01 -.163E+02   0.541E+00 0.617E-01 0.169E+02   0.158E+00 -.105E-02 -.677E+00   0.672E-05 -.356E-05 -.381E-06
   -.695E+00 -.604E-01 -.163E+02   0.541E+00 0.617E-01 0.169E+02   0.158E+00 -.105E-02 -.677E+00   0.739E-05 0.202E-05 -.112E-05
   -.275E+02 -.478E-01 -.161E+02   0.275E+02 0.491E-01 0.166E+02   -.641E-01 -.101E-02 -.516E+00   0.107E-05 0.362E-05 0.840E-06
   0.467E+01 0.445E+01 -.274E+01   -.412E+01 -.463E+01 0.238E+01   -.586E+00 0.172E+00 0.370E+00   -.537E-06 -.651E-05 -.313E-06
   0.466E+01 -.443E+01 -.271E+01   -.411E+01 0.461E+01 0.236E+01   -.586E+00 -.174E+00 0.371E+00   -.674E-05 0.617E-05 -.177E-06
   0.466E+01 -.443E+01 -.271E+01   -.411E+01 0.461E+01 0.236E+01   -.586E+00 -.174E+00 0.371E+00   -.216E-05 0.591E-05 -.248E-07
   0.467E+01 0.445E+01 -.274E+01   -.412E+01 -.463E+01 0.238E+01   -.586E+00 0.172E+00 0.370E+00   -.534E-05 -.556E-05 0.110E-06
   0.467E+01 0.445E+01 -.274E+01   -.412E+01 -.463E+01 0.238E+01   -.586E+00 0.172E+00 0.370E+00   -.788E-05 -.592E-05 0.122E-06
   0.466E+01 -.443E+01 -.271E+01   -.411E+01 0.461E+01 0.236E+01   -.586E+00 -.174E+00 0.371E+00   0.322E-06 0.599E-05 0.182E-06
   0.466E+01 -.443E+01 -.271E+01   -.411E+01 0.461E+01 0.236E+01   -.586E+00 -.174E+00 0.371E+00   -.600E-05 0.623E-05 -.569E-06
   0.467E+01 0.445E+01 -.274E+01   -.412E+01 -.463E+01 0.238E+01   -.586E+00 0.172E+00 0.370E+00   -.107E-05 -.625E-05 -.571E-06
   -.536E+02 -.109E+00 -.226E+02   0.232E-12 -.924E-13 0.156E-12   0.536E+02 0.109E+00 0.226E+02   -.822E-04 -.526E-06 -.277E-04

 POSITION                                       TOTAL-FORCE (eV/Angst)
      2.58848      3.11398      2.81957         0.134947     -0.000051     -0.030440
      8.71949      3.11426      3.13977         0.123675      0.000022     -0.056133
      2.43166      9.34207      3.07030         0.123675      0.000022     -0.056133
      8.87750      9.34371      2.88829         0.134947     -0.000051     -0.030440
      2.65819      3.11403      9.19328         0.134947     -0.000051     -0.030440
      8.78919      3.11430      9.51348         0.123675      0.000022     -0.056133
      2.50137      9.34211      9.44401         0.123675      0.000022     -0.056133
      8.94721      9.34375      9.26200         0.134947     -0.000051     -0.030440
      3.89071      3.11529      3.54061        -0.081322     -0.000466      0.029212
     10.13490      3.11574      3.59492        -0.068126     -0.000535      0.050720
      3.84708      9.34355      3.52545        -0.068126     -0.000535      0.050720
     10.17973      9.34502      3.60934        -0.081322     -0.000466      0.029212
      3.96042      3.11534      9.91432        -0.081322     -0.000466      0.029212
     10.20460      3.11579      9.96863        -0.068126     -0.000535      0.050720
      3.91678      9.34360      9.89916        -0.068126     -0.000535      0.050720
     10.24944      9.34506      9.98305        -0.081322     -0.000466      0.029212
      2.78657      3.11258      1.73294        -0.027972      0.000125      0.169327
      8.70068      3.11350      2.03540         0.009201     -0.000001      0.167216
      2.41286      9.34131      1.96592         0.009201     -0.000001      0.167216
      9.07559      9.34231      1.80166        -0.027972      0.000125      0.169327
      2.85628      3.11262      8.10665        -0.027972      0.000125      0.169327
      8.77039      3.11355      8.40911         0.009201     -0.000001      0.167216
      2.48256      9.34136      8.33963         0.009201     -0.000001      0.167216
      9.14529      9.34235      8.17537        -0.027972      0.000125      0.169327
      2.02521      4.01727      3.10166         0.050092     -0.030923     -0.009396
      8.21738      4.01575      3.52394         0.047592     -0.031626     -0.016880
      1.92956     10.24356      3.45447         0.047592     -0.031626     -0.016880
      8.31423     10.24700      3.17038         0.050092     -0.030923     -0.009396
      2.09492      4.01732      9.47537         0.050092     -0.030923     -0.009396
      8.28709      4.01580      9.89765         0.047592     -0.031626     -0.016880
      1.99927     10.24361      9.82818         0.047592     -0.031626     -0.016880
      8.38393     10.24705      9.54409         0.050092     -0.030923     -0.009396
      2.02588      2.21105      3.10410         0.049503      0.030837     -0.009743
      8.21905      2.21237      3.52520         0.046933      0.031615     -0.017143
      1.93123      8.44019      3.45573         0.046933      0.031615     -0.017143
      8.31489      8.44078      3.17282         0.049503      0.030837     -0.009743
      2.09558      2.21109      9.47781         0.049503      0.030837     -0.009743
      8.28876      2.21242      9.89891         0.046933      0.031615     -0.017143
      2.00094      8.44023      9.82944         0.046933      0.031615     -0.017143
      8.38460      8.44082      9.54653         0.049503      0.030837     -0.009743
      4.46183      3.96327      3.30525        -0.061339     -0.042321      0.010999
     10.65413      3.95892      3.25259        -0.058597     -0.041290      0.023112
      4.36631     10.18674      3.18312        -0.058597     -0.041290      0.023112
     10.75085     10.19300      3.37398        -0.061339     -0.042321      0.010999
      4.53154      3.96332      9.67896        -0.061339     -0.042321      0.010999
     10.72383      3.95897      9.62630        -0.058597     -0.041290      0.023112
      4.43601     10.18678      9.55683        -0.058597     -0.041290      0.023112
     10.82055     10.19305      9.74769        -0.061339     -0.042321      0.010999
      4.46209      2.26674      3.30769        -0.061984      0.042994      0.010389
     10.65536      2.27275      3.25380        -0.059344      0.041893      0.022692
      4.36754      8.50056      3.18433        -0.059344      0.041893      0.022692
     10.75111      8.49647      3.37642        -0.061984      0.042994      0.010389
      4.53179      2.26679      9.68141        -0.061984      0.042994      0.010389
     10.72507      2.27279      9.62751        -0.059344      0.041893      0.022692
      4.43725      8.50061      9.55804        -0.059344      0.041893      0.022692
     10.82081      8.49652      9.75013        -0.061984      0.042994      0.010389
      3.77289      3.11683      4.57744        -0.003220     -0.000013     -0.167148
     10.24112      3.11645      4.64128        -0.049299      0.000129     -0.163471
      3.95330      9.34426      4.57181        -0.049299      0.000129     -0.163471
     10.06191      9.34656      4.64617        -0.003220     -0.000013     -0.167148
[...]
     11.69430      3.11595      0.32704         0.004299      0.000229     -0.015768
      5.40648      9.34377      0.25756         0.004299      0.000229     -0.015768
     12.19701      9.34470      0.23635         0.019083      0.000224     -0.018821
      5.97770      3.11502      6.54134         0.019083      0.000224     -0.018821
     11.76401      3.11600      6.70075         0.004299      0.000229     -0.015768
      5.47619      9.34381      6.63127         0.004299      0.000229     -0.015768
     12.26672      9.34475      6.61006         0.019083      0.000224     -0.018821
      2.78368      5.93176      5.90914        -0.033717     -0.005037      0.016253
      9.07204      6.52758      5.97820        -0.033721      0.004763      0.016213
      2.78302      0.29785      5.90947        -0.033721      0.004763      0.016213
      9.07270     12.16149      5.97786        -0.033717     -0.005037      0.016253
      2.85339      5.93181     12.28285        -0.033717     -0.005037      0.016253
      9.14174      6.52762     12.35191        -0.033721      0.004763      0.016213
      2.85273      0.29790     12.28318        -0.033721      0.004763      0.016213
      9.14241     12.16153     12.35157        -0.033717     -0.005037      0.016253
    total drift:                                0.003682     -0.000031     -0.001037

  FREE ENERGIE OF THE ION-ELECTRON SYSTEM (eV)
  free  energy   TOTEN  =      -423.54024121 eV

  energy  without entropy=     -423.54024121  energy(sigma->0) =     -423.54024121

 Spin-Orbit-Coupling matrix elements

 Ion:    1  E_soc:     -0.0000139
 l=   1
     0.0000000    -0.0000027    -0.0000021
    -0.0000027     0.0000000    -0.0000021
    -0.0000021    -0.0000021     0.0000000
 l=   2
     0.0000000     0.0000000     0.0000000     0.0000000     0.0000000
     0.0000000     0.0000000     0.0000000     0.0000000     0.0000000
     0.0000000     0.0000000     0.0000000     0.0000000     0.0000000
     0.0000000     0.0000000     0.0000000     0.0000000     0.0000000
     0.0000000     0.0000000     0.0000000     0.0000000     0.0000000
 l=   3
     0.0000000     0.0000000     0.0000000     0.0000000     0.0000000     0.0000000     0.0000000
     0.0000000     0.0000000     0.0000000     0.0000000     0.0000000     0.0000000     0.0000000
     0.0000000     0.0000000     0.0000000     0.0000000     0.0000000     0.0000000     0.0000000
     0.0000000     0.0000000     0.0000000     0.0000000     0.0000000     0.0000000     0.0000000
     0.0000000     0.0000000     0.0000000     0.0000000     0.0000000     0.0000000     0.0000000
     0.0000000     0.0000000     0.0000000     0.0000000     0.0000000     0.0000000     0.0000000
     0.0000000     0.0000000     0.0000000     0.0000000     0.0000000     0.0000000     0.0000000

[...]

 Ion:   96  E_soc:     -0.2858410
 l=   1
     0.0000000    -0.0430302    -0.0495084
    -0.0430302     0.0000000    -0.0504027
    -0.0495084    -0.0504027     0.0000000
 l=   2
     0.0000000    -0.0000021     0.0000000    -0.0000079     0.0000193
    -0.0000021     0.0000000    -0.0000023    -0.0000024    -0.0000015
     0.0000000    -0.0000023     0.0000000     0.0000050     0.0000000
    -0.0000079    -0.0000024     0.0000050     0.0000000     0.0000126
     0.0000193    -0.0000015     0.0000000     0.0000126     0.0000000
 l=   3
     0.0000000     0.0000000     0.0000000     0.0000000     0.0000000     0.0000000     0.0000000
     0.0000000     0.0000000     0.0000000     0.0000000     0.0000000     0.0000000     0.0000000
     0.0000000     0.0000000     0.0000000     0.0000000     0.0000000     0.0000000     0.0000000
     0.0000000     0.0000000     0.0000000     0.0000000     0.0000000     0.0000000     0.0000000
     0.0000000     0.0000000     0.0000000     0.0000000     0.0000000     0.0000000     0.0000000
     0.0000000     0.0000000     0.0000000     0.0000000     0.0000000     0.0000000     0.0000000
     0.0000000     0.0000000     0.0000000     0.0000000     0.0000000     0.0000000     0.0000000