 vasp.5.4.1 24Jun15 (build Nov 25 2015 16:01:35) complex

 executed on         CrayXC-Intel date 2016.06.02  11:42:52

 INCAR:
 POTCAR:    PAW_PBE Ga_d 06Jul2010
 POTCAR:    PAW_PBE As 22Sep2009

 POTCAR:    PAW_PBE Ga_d 06Jul2010
   VRHFIN =Ga: s2p1

   TITEL  = PAW_PBE Ga_d 06Jul2010
   POMASS =   69.723; ZVAL   =   13.000    mass and valenz
   ENMAX  =  282.691; ENMIN  =  212.018 eV

 POTCAR:    PAW_PBE As 22Sep2009
   VRHFIN =As: s2p3

   TITEL  = PAW_PBE As 22Sep2009
   POMASS =   74.922; ZVAL   =    5.000    mass and valenz
   ENMAX  =  208.702; ENMIN  =  156.526 eV

  PAW_PBE Ga_d 06Jul2010                :
  PAW_PBE As 22Sep2009                  :

 POSCAR: GaAs (Madelung Handbook, RT)
  positions in direct lattice
  velocities in cartesian coordinates
 exchange correlation table for  LEXCH =        8
   RHO(1)=    0.500       N(1)  =     2000
   RHO(2)=  100.500       N(2)  =     4000

 ion  position               nearest neighbor table
   1  0.000  0.000  0.000-   2 2.45   2 2.45   2 2.45   2 2.45
   2  0.250  0.250  0.250-   1 2.45   1 2.45   1 2.45   1 2.45

  LATTYP: Found a face centered cubic cell.
 ALAT       =     5.6536000000

  Lattice vectors:

 A1 = (   2.8268000000,   2.8268000000,   0.0000000000)
 A2 = (   2.8268000000,   0.0000000000,  -2.8268000000)
 A3 = (   0.0000000000,   2.8268000000,  -2.8268000000)

Analysis of symmetry for initial positions (statically):
 Subroutine PRICEL returns:
 Original cell was already a primitive cell.

 Routine SETGRP: Setting up the symmetry group for a
 face centered cubic supercell.

 Subroutine GETGRP returns: Found 24 space group operations
 (whereof 24 operations were pure point group operations)
 out of a pool of 48 trial point group operations.

The static configuration has the point symmetry T_d .

Analysis of symmetry for dynamics (positions and initial velocities):
 Subroutine PRICEL returns:
 Original cell was already a primitive cell.

 Routine SETGRP: Setting up the symmetry group for a
 face centered cubic supercell.

 Subroutine GETGRP returns: Found 24 space group operations
 (whereof 24 operations were pure point group operations)
 out of a pool of 48 trial point group operations.

The dynamic configuration has the point symmetry T_d .

 Subroutine INISYM returns: Found 24 space group operations
 (whereof 24 operations are pure point group operations),
 and found     1 'primitive' translations

 KPOINTS: Automatically generated mesh: SCF 16, 0.
  k-points in reciprocal lattice
Space group operators:
 irot       det(A)        alpha          n_x          n_y          n_z        tau_x        tau_y        tau_z
    1     1.000000     0.000000     1.000000     0.000000     0.000000     0.000000     0.000000     0.000000
    2     1.000000   120.000000    -0.577350    -0.577350     0.577350     0.000000     0.000000     0.000000
    3     1.000000   120.000000     0.577350     0.577350    -0.577350     0.000000     0.000000     0.000000
    4    -1.000000    90.000000    -1.000000     0.000000     0.000000     0.000000     0.000000     0.000000
    5    -1.000000   180.000000     0.707107     0.707107     0.000000     0.000000     0.000000     0.000000
    6    -1.000000    90.000000     0.000000     1.000000     0.000000     0.000000     0.000000     0.000000
    7     1.000000   180.000000     1.000000     0.000000     0.000000     0.000000     0.000000     0.000000
    8     1.000000   120.000000     0.577350     0.577350     0.577350     0.000000     0.000000     0.000000
    9     1.000000   120.000000    -0.577350     0.577350     0.577350     0.000000     0.000000     0.000000
   10    -1.000000    90.000000     1.000000     0.000000     0.000000     0.000000     0.000000     0.000000
   11    -1.000000    90.000000     0.000000     0.000000     1.000000     0.000000     0.000000     0.000000
   12    -1.000000   180.000000     0.707107     0.000000    -0.707107     0.000000     0.000000     0.000000
   13     1.000000   120.000000     0.577350    -0.577350    -0.577350     0.000000     0.000000     0.000000
   14     1.000000   120.000000     0.577350    -0.577350     0.577350     0.000000     0.000000     0.000000
   15     1.000000   180.000000     0.000000     0.000000     1.000000     0.000000     0.000000     0.000000
   16    -1.000000    90.000000     0.000000    -1.000000     0.000000     0.000000     0.000000     0.000000
   17    -1.000000   180.000000     0.000000    -0.707107     0.707107     0.000000     0.000000     0.000000
   18    -1.000000    90.000000     0.000000     0.000000    -1.000000     0.000000     0.000000     0.000000
   19     1.000000   120.000000    -0.577350    -0.577350    -0.577350     0.000000     0.000000     0.000000
   20     1.000000   180.000000     0.000000     1.000000     0.000000     0.000000     0.000000     0.000000
   21     1.000000   120.000000    -0.577350     0.577350    -0.577350     0.000000     0.000000     0.000000
   22    -1.000000   180.000000     0.707107    -0.707107     0.000000     0.000000     0.000000     0.000000
   23    -1.000000   180.000000     0.000000     0.707107     0.707107     0.000000     0.000000     0.000000
   24    -1.000000   180.000000     0.707107     0.000000     0.707107     0.000000     0.000000     0.000000

 Subroutine IBZKPT_HF returns following result:

 Found    362 k-points in 1st BZ
 the following    362 k-points will be used (e.g. in the exchange kernel)
 Following reciprocal coordinates:   # in IRBZ
  0.000000  0.000000  0.000000    0.00462963   1 t-inv F
  0.166667  0.000000  0.000000    0.00462963   2 t-inv F
  0.333333  0.000000  0.000000    0.00462963   3 t-inv F
  0.500000  0.000000  0.000000    0.00462963   4 t-inv F
  0.166667  0.166667  0.000000    0.00462963   5 t-inv F
  0.333333  0.166667  0.000000    0.00462963   6 t-inv F
  0.500000  0.166667  0.000000    0.00462963   7 t-inv F
 -0.333333  0.166667  0.000000    0.00462963   8 t-inv F
 -0.166667  0.166667  0.000000    0.00462963   9 t-inv F
  0.333333  0.333333  0.000000    0.00462963  10 t-inv F
  0.500000  0.333333  0.000000    0.00462963  11 t-inv F
 -0.333333  0.333333  0.000000    0.00462963  12 t-inv F
  0.500000  0.500000  0.000000    0.00462963  13 t-inv F
  0.500000  0.333333  0.166667    0.00462963  14 t-inv F
 -0.333333  0.333333  0.166667    0.00462963  15 t-inv F
 -0.333333  0.500000  0.166667    0.00462963  16 t-inv F
  0.000000  0.000000  0.000000    0.00000000  17 t-inv F
  0.014286  0.000000  0.014286    0.00000000  18 t-inv F
  0.028571  0.000000  0.028571    0.00000000  19 t-inv F
  0.042857  0.000000  0.042857    0.00000000  20 t-inv F
  0.057143  0.000000  0.057143    0.00000000  21 t-inv F
  0.071429  0.000000  0.071429    0.00000000  22 t-inv F
  0.085714  0.000000  0.085714    0.00000000  23 t-inv F
  0.100000  0.000000  0.100000    0.00000000  24 t-inv F
  0.114286  0.000000  0.114286    0.00000000  25 t-inv F
  0.128571  0.000000  0.128571    0.00000000  26 t-inv F
  0.142857  0.000000  0.142857    0.00000000  27 t-inv F
  0.157143  0.000000  0.157143    0.00000000  28 t-inv F
  0.171429  0.000000  0.171429    0.00000000  29 t-inv F
  0.185714  0.000000  0.185714    0.00000000  30 t-inv F
  0.200000  0.000000  0.200000    0.00000000  31 t-inv F
  0.214286  0.000000  0.214286    0.00000000  32 t-inv F
  0.228571  0.000000  0.228571    0.00000000  33 t-inv F
  0.242857  0.000000  0.242857    0.00000000  34 t-inv F
  0.257143  0.000000  0.257143    0.00000000  35 t-inv F
  0.271429  0.000000  0.271429    0.00000000  36 t-inv F
  0.285714  0.000000  0.285714    0.00000000  37 t-inv F
  0.300000  0.000000  0.300000    0.00000000  38 t-inv F
  0.314286  0.000000  0.314286    0.00000000  39 t-inv F
  0.328571  0.000000  0.328571    0.00000000  40 t-inv F
  0.342857  0.000000  0.342857    0.00000000  41 t-inv F
  0.357143  0.000000  0.357143    0.00000000  42 t-inv F
  0.371429  0.000000  0.371429    0.00000000  43 t-inv F
  0.385714  0.000000  0.385714    0.00000000  44 t-inv F
  0.400000  0.000000  0.400000    0.00000000  45 t-inv F
  0.414286  0.000000  0.414286    0.00000000  46 t-inv F
  0.428571  0.000000  0.428571    0.00000000  47 t-inv F
  0.442857  0.000000  0.442857    0.00000000  48 t-inv F
  0.457143  0.000000  0.457143    0.00000000  49 t-inv F
  0.471429  0.000000  0.471429    0.00000000  50 t-inv F
  0.485714  0.000000  0.485714    0.00000000  51 t-inv F
  0.500000  0.000000  0.500000    0.00000000  52 t-inv F
  0.494565  0.016304  0.510870    0.00000000  53 t-inv F
  0.489130  0.032609  0.521739    0.00000000  54 t-inv F
  0.483696  0.048913  0.532609    0.00000000  55 t-inv F
  0.478261  0.065217  0.543478    0.00000000  56 t-inv F
  0.472826  0.081522  0.554348    0.00000000  57 t-inv F
  0.467391  0.097826  0.565217    0.00000000  58 t-inv F
  0.461957  0.114130  0.576087    0.00000000  59 t-inv F
  0.456522  0.130435  0.586956    0.00000000  60 t-inv F
[...]
  0.166667  0.500000  0.166667    0.00462963   8 t-inv T
 -0.500000 -0.333333 -0.333333    0.00462963   8 t-inv T
  0.333333  0.000000 -0.166667    0.00462963   8 t-inv T
 -0.500000 -0.333333  0.000000    0.00462963  11 t-inv T
  0.000000 -0.500000 -0.333333    0.00462963  11 t-inv T
 -0.333333  0.000000 -0.500000    0.00462963  11 t-inv T
  0.333333  0.333333 -0.166667    0.00462963  11 t-inv T
  0.500000  0.166667  0.500000    0.00462963  11 t-inv T
 -0.333333 -0.500000  0.000000    0.00462963  11 t-inv T
 -0.166667  0.333333  0.333333    0.00462963  11 t-inv T
  0.500000  0.500000  0.166667    0.00462963  11 t-inv T
  0.000000 -0.333333 -0.500000    0.00462963  11 t-inv T
  0.333333 -0.166667  0.333333    0.00462963  11 t-inv T
  0.166667  0.500000  0.500000    0.00462963  11 t-inv T
 -0.500000  0.000000 -0.333333    0.00462963  11 t-inv T

 I would recommend the setting:
   dimension x,y,z NGX =    29 NGY =   29 NGZ =   29
 SYSTEM =  Name
 POSCAR =  GaAs (Madelung Handbook, RT)

 Startparameter for this run:
   NWRITE =      2    write-flag & timer
   PREC   = accura    normal or accurate (medium, high low for compatibility)
   ISTART =      0    job   : 0-new  1-cont  2-samecut
   ICHARG =      2    charge: 1-file 2-atom 10-const
   ISPIN  =      1    spin polarized calculation?
   LNONCOLLINEAR =      F non collinear calculations
   LSORBIT =      F    spin-orbit coupling
   INIWAV =      1    electr: 0-lowe 1-rand  2-diag
   LASPH  =      F    aspherical Exc in radial PAW
   METAGGA=      F    non-selfconsistent MetaGGA calc.

 Electronic Relaxation 1
   ENCUT  =  500.0 eV  36.75 Ry    6.06 a.u.   7.29  7.29  7.29*2*pi/ulx,y,z
   ENINI  =  500.0     initial cutoff
   ENAUG  =  490.7 eV  augmentation charge cutoff
   NELM   =     60;   NELMIN=  5; NELMDL=  0     # of ELM steps
   EDIFF  = 0.1E-05   stopping-criterion for ELM
   LREAL  =      F    real-space projection
   NLSPLINE    = F    spline interpolate recip. space projectors
   LCOMPAT=      F    compatible to vasp.4.4
   GGA_COMPAT  = T    GGA compatible to vasp.4.4-vasp.4.6
   LMAXPAW     = -100 max onsite density
   LMAXMIX     =    2 max onsite mixed and CHGCAR
   VOSKOWN=      0    Vosko Wilk Nusair interpolation
   ROPT   =    0.00000   0.00000
 Ionic relaxation
[...]
 k-point  4 :   0.5000 0.0000 0.0000  plane waves:    1158
 k-point  5 :   0.1667 0.1667 0.0000  plane waves:    1154
 k-point  6 :   0.3333 0.1667 0.0000  plane waves:    1137
 k-point  7 :   0.5000 0.1667 0.0000  plane waves:    1145
 k-point  8 :  -0.3333 0.1667 0.0000  plane waves:    1144
 k-point  9 :  -0.1667 0.1667 0.0000  plane waves:    1147
 k-point 10 :   0.3333 0.3333 0.0000  plane waves:    1150
 k-point 11 :   0.5000 0.3333 0.0000  plane waves:    1149
 k-point 12 :  -0.3333 0.3333 0.0000  plane waves:    1141
 k-point 13 :   0.5000 0.5000 0.0000  plane waves:    1162
 k-point 14 :   0.5000 0.3333 0.1667  plane waves:    1151
 k-point 15 :  -0.3333 0.3333 0.1667  plane waves:    1144
 k-point 16 :  -0.3333 0.5000 0.1667  plane waves:    1142
 k-point 17 :   0.0000 0.0000 0.0000  plane waves:    1139
 k-point 18 :   0.0143 0.0000 0.0143  plane waves:    1139
 k-point 19 :   0.0286 0.0000 0.0286  plane waves:    1155
 k-point 20 :   0.0429 0.0000 0.0429  plane waves:    1163
 k-point 21 :   0.0571 0.0000 0.0571  plane waves:    1163
 k-point 22 :   0.0714 0.0000 0.0714  plane waves:    1159
 k-point 23 :   0.0857 0.0000 0.0857  plane waves:    1163
 k-point 24 :   0.1000 0.0000 0.1000  plane waves:    1155
 k-point 25 :   0.1143 0.0000 0.1143  plane waves:    1155
 k-point 26 :   0.1286 0.0000 0.1286  plane waves:    1155
 k-point 27 :   0.1429 0.0000 0.1429  plane waves:    1155
 k-point 28 :   0.1571 0.0000 0.1571  plane waves:    1154
 k-point 29 :   0.1714 0.0000 0.1714  plane waves:    1154
 k-point 30 :   0.1857 0.0000 0.1857  plane waves:    1154
 k-point 31 :   0.2000 0.0000 0.2000  plane waves:    1146
 k-point 32 :   0.2143 0.0000 0.2143  plane waves:    1146
 k-point 33 :   0.2286 0.0000 0.2286  plane waves:    1146
 k-point 34 :   0.2429 0.0000 0.2429  plane waves:    1146
 k-point 35 :   0.2571 0.0000 0.2571  plane waves:    1146
 k-point 36 :   0.2714 0.0000 0.2714  plane waves:    1146
 k-point 37 :   0.2857 0.0000 0.2857  plane waves:    1146
 k-point 38 :   0.3000 0.0000 0.3000  plane waves:    1146
 k-point 39 :   0.3143 0.0000 0.3143  plane waves:    1142
 k-point 40 :   0.3286 0.0000 0.3286  plane waves:    1150
 k-point 41 :   0.3429 0.0000 0.3429  plane waves:    1142
 k-point 42 :   0.3571 0.0000 0.3571  plane waves:    1150
 k-point 43 :   0.3714 0.0000 0.3714  plane waves:    1150
 k-point 44 :   0.3857 0.0000 0.3857  plane waves:    1150
 k-point 45 :   0.4000 0.0000 0.4000  plane waves:    1154
 k-point 46 :   0.4143 0.0000 0.4143  plane waves:    1146
 k-point 47 :   0.4286 0.0000 0.4286  plane waves:    1146
 k-point 48 :   0.4429 0.0000 0.4429  plane waves:    1154
 k-point 49 :   0.4571 0.0000 0.4571  plane waves:    1154
 k-point 50 :   0.4714 0.0000 0.4714  plane waves:    1154
 k-point 51 :   0.4857 0.0000 0.4857  plane waves:    1162
 k-point 52 :   0.5000 0.0000 0.5000  plane waves:    1162
 k-point 53 :   0.4946 0.0163 0.5109  plane waves:    1152
 k-point 54 :   0.4891 0.0326 0.5217  plane waves:    1146
 k-point 55 :   0.4837 0.0489 0.5326  plane waves:    1144
 k-point 56 :   0.4783 0.0652 0.5435  plane waves:    1141
 k-point 57 :   0.4728 0.0815 0.5543  plane waves:    1144
 k-point 58 :   0.4674 0.0978 0.5652  plane waves:    1144
 k-point 59 :   0.4620 0.1141 0.5761  plane waves:    1152
 k-point 60 :   0.4565 0.1304 0.5870  plane waves:    1149
[...]
 k-point 85 :   0.2917 0.2917 0.5833  plane waves:    1137
 k-point 86 :   0.2833 0.2833 0.5667  plane waves:    1137
 k-point 87 :   0.2750 0.2750 0.5500  plane waves:    1147
 k-point 88 :   0.2667 0.2667 0.5333  plane waves:    1147
 k-point 89 :   0.2583 0.2583 0.5167  plane waves:    1147
 k-point 90 :   0.2500 0.2500 0.5000  plane waves:    1135
 k-point 91 :   0.2417 0.2417 0.4833  plane waves:    1135
 k-point 92 :   0.2333 0.2333 0.4667  plane waves:    1139
 k-point 93 :   0.2250 0.2250 0.4500  plane waves:    1147
 k-point 94 :   0.2167 0.2167 0.4333  plane waves:    1147
 k-point 95 :   0.2083 0.2083 0.4167  plane waves:    1147
 k-point 96 :   0.2000 0.2000 0.4000  plane waves:    1151
 k-point 97 :   0.1917 0.1917 0.3833  plane waves:    1151
 k-point 98 :   0.1833 0.1833 0.3667  plane waves:    1151
 k-point 99 :   0.1750 0.1750 0.3500  plane waves:    1147
 k-point ** :   0.1667 0.1667 0.3333  plane waves:    1147
 k-point ** :   0.1583 0.1583 0.3167  plane waves:    1143
 k-point ** :   0.1500 0.1500 0.3000  plane waves:    1145
 k-point ** :   0.1417 0.1417 0.2833  plane waves:    1153
 k-point ** :   0.1333 0.1333 0.2667  plane waves:    1153
 k-point ** :   0.1250 0.1250 0.2500  plane waves:    1159
 k-point ** :   0.1167 0.1167 0.2333  plane waves:    1159
 k-point ** :   0.1083 0.1083 0.2167  plane waves:    1159
 k-point ** :   0.1000 0.1000 0.2000  plane waves:    1159
 k-point ** :   0.0917 0.0917 0.1833  plane waves:    1159
 k-point ** :   0.0833 0.0833 0.1667  plane waves:    1163
 k-point ** :   0.0750 0.0750 0.1500  plane waves:    1163
 k-point ** :   0.0667 0.0667 0.1333  plane waves:    1169
 k-point ** :   0.0583 0.0583 0.1167  plane waves:    1169
 k-point ** :   0.0500 0.0500 0.1000  plane waves:    1173
 k-point ** :   0.0417 0.0417 0.0833  plane waves:    1163
 k-point ** :   0.0333 0.0333 0.0667  plane waves:    1161
 k-point ** :   0.0250 0.0250 0.0500  plane waves:    1157
 k-point ** :   0.0167 0.0167 0.0333  plane waves:    1145
 k-point ** :   0.0083 0.0083 0.0167  plane waves:    1139
 k-point ** :   0.0000 0.0000 0.0000  plane waves:    1139
 k-point ** :   0.0119 0.0119 0.0119  plane waves:    1139
 k-point ** :   0.0238 0.0238 0.0238  plane waves:    1142
 k-point ** :   0.0357 0.0357 0.0357  plane waves:    1157
 k-point ** :   0.0476 0.0476 0.0476  plane waves:    1157
 k-point ** :   0.0595 0.0595 0.0595  plane waves:    1158
 k-point ** :   0.0714 0.0714 0.0714  plane waves:    1155
 k-point ** :   0.0833 0.0833 0.0833  plane waves:    1161
 k-point ** :   0.0952 0.0952 0.0952  plane waves:    1155
 k-point ** :   0.1071 0.1071 0.1071  plane waves:    1155
 k-point ** :   0.1190 0.1190 0.1190  plane waves:    1155
 k-point ** :   0.1310 0.1310 0.1310  plane waves:    1155
 k-point ** :   0.1429 0.1429 0.1429  plane waves:    1161
 k-point ** :   0.1548 0.1548 0.1548  plane waves:    1167
 k-point ** :   0.1667 0.1667 0.1667  plane waves:    1167
 k-point ** :   0.1786 0.1786 0.1786  plane waves:    1167
 k-point ** :   0.1905 0.1905 0.1905  plane waves:    1167
 k-point ** :   0.2024 0.2024 0.2024  plane waves:    1167
 k-point ** :   0.2143 0.2143 0.2143  plane waves:    1164
 k-point ** :   0.2262 0.2262 0.2262  plane waves:    1158
 k-point ** :   0.2381 0.2381 0.2381  plane waves:    1152
 k-point ** :   0.2500 0.2500 0.2500  plane waves:    1152
 k-point ** :   0.2619 0.2619 0.2619  plane waves:    1146
 k-point ** :   0.2738 0.2738 0.2738  plane waves:    1149
 k-point ** :   0.2857 0.2857 0.2857  plane waves:    1155
 k-point ** :   0.2976 0.2976 0.2976  plane waves:    1155
 k-point ** :   0.3095 0.3095 0.3095  plane waves:    1152
 k-point ** :   0.3214 0.3214 0.3214  plane waves:    1149
 k-point ** :   0.3333 0.3333 0.3333  plane waves:    1149
 k-point ** :   0.3452 0.3452 0.3452  plane waves:    1149
 k-point ** :   0.3571 0.3571 0.3571  plane waves:    1149
 k-point ** :   0.3690 0.3690 0.3690  plane waves:    1155
 k-point ** :   0.3810 0.3810 0.3810  plane waves:    1149
 k-point ** :   0.3929 0.3929 0.3929  plane waves:    1149
 k-point ** :   0.4048 0.4048 0.4048  plane waves:    1149
 k-point ** :   0.4167 0.4167 0.4167  plane waves:    1149
 k-point ** :   0.4286 0.4286 0.4286  plane waves:    1155
 k-point ** :   0.4405 0.4405 0.4405  plane waves:    1155
 k-point ** :   0.4524 0.4524 0.4524  plane waves:    1161
 k-point ** :   0.4643 0.4643 0.4643  plane waves:    1164
 k-point ** :   0.4762 0.4762 0.4762  plane waves:    1158
 k-point ** :   0.4881 0.4881 0.4881  plane waves:    1158
 k-point ** :   0.5000 0.5000 0.5000  plane waves:    1158

 maximum and minimum number of plane-waves per node :       206      175

 maximum number of plane-waves:      1173
 maximum index in each direction:
   IXMAX=    7   IYMAX=    7   IZMAX=    7
   IXMIN=   -7   IYMIN=   -7   IZMIN=   -8

 NGX is ok and might be reduce to  30
 NGY is ok and might be reduce to  30
 WARNING: aliasing errors must be expected set NGZ to  32 to avoid them
 aliasing errors are usually negligible using standard VASP settings
 and one can safely disregard these warnings

 parallel 3D FFT for wavefunctions:
    minimum data exchange during FFTs selected (reduces bandwidth)
 parallel 3D FFT for charge:
    minimum data exchange during FFTs selected (reduces bandwidth)

 FFT grid for exact exchange (Hartree Fock)
  NGX = 18; NGY = 18; NGZ = 18

 Radii for the augmentation spheres in the non-local exchange
 for species   1 augmentation radius   1.392 (default was   1.031)
       energy cutoff for augmentation   2000.0
 for species   2 augmentation radius   1.434 (default was   1.062)
       energy cutoff for augmentation   2000.0

 real space projection operators:
  max/ min on nodes  :        105.47         97.85

 Maximum index for augmentation-charges in exchange          279
  SETUP_FOCK is finished

 Broyden mixing: mesh for mixing (old mesh)
   NGX = 15   NGY = 15   NGZ = 15
  (NGX  = 60   NGY  = 60   NGZ  = 60)
  gives a total of   3375 points

 initial charge density was supplied:
 charge density of overlapping atoms calculated
 number of electron      18.0000000 magnetization
 charge density for first step will be calculated from the start-wavefunctions

 Maximum index for augmentation-charges         1370 (set IRDMAX)

 First call to EWALD:  gamma=   0.498
 Maximum number of real-space cells 3x 3x 3
 Maximum number of reciprocal cells 3x 3x 3

 FEWALD executed in parallel

----------------------------------------- Iteration    1(   1)  ---------------------------------------

 eigenvalue-minimisations  :  6592
 total energy-change (2. order) : 0.7784881E+03  (-0.3478315E+04)
 number of electron      18.0000000 magnetization
 augmentation part       18.0000000 magnetization

 Free energy of the ion-electron system (eV)
  alpha Z        PSCENC =        60.29112737
  Ewald energy   TEWEN  =     -1265.50193243
  -Hartree energ DENC   =      -725.79254029
  -exchange      EXHF   =         0.00000000
  -V(xc)+E(xc)   XCENC  =        23.44814936
  PAW double counting   =      1758.35752223    -2059.93601497
  entropy T*S    EENTRO =        -0.00039260
  eigenvalues    EBANDS =       671.87787777
  atomic energy  EATOM  =      2315.74433272
  free energy    TOTEN  =       778.48812916 eV

  energy without entropy =      778.48852176  energy(sigma->0) =      778.48832546
  exchange ACFDT corr.  =         0.00000000  see jH, gK, PRB 81, 115126

[...]

 eigenvalue-minimisations  :  6472
 total energy-change (2. order) :-0.6581961E+03  (-0.6103873E+03)
 number of electron      18.0000000 magnetization
 augmentation part       18.0000000 magnetization

[...]

----------------------------------------- Iteration    1(  19)  ---------------------------------------

 eigenvalue-minimisations  :     0
 total energy-change (2. order) :-0.5674783E-06  (-0.2259670E-06)
 number of electron      17.9999995 magnetization
 augmentation part        7.7294555 magnetization

 Free energy of the ion-electron system (eV)
  alpha Z        PSCENC =        60.29112737
  Ewald energy   TEWEN  =     -1265.50193243
  -Hartree energ DENC   =      -723.52657580
  -exchange      EXHF   =        41.40737132
  -V(xc)+E(xc)   XCENC  =        23.64879754
  PAW double counting   =      2106.20428605    -2411.93842766
  entropy T*S    EENTRO =        -0.00000000
  eigenvalues    EBANDS =      -156.17470041
  atomic energy  EATOM  =      2315.74433272
  free energy    TOTEN  =        -9.84572128 eV

  energy without entropy =       -9.84572128  energy(sigma->0) =       -9.84572128
  exchange ACFDT corr.  =         0.00000000  see jH, gK, PRB 81, 115126

  average scaling for gradient   0.7130

 the core state eigenenergies are
   1-  1s    -59.4188  2s    -59.7100  2p    -59.7100  3s    -59.7100  3p    -59.7100

   2-  1s    -46.6041  2s    -46.9473  2p    -46.9473  3s    -46.9473  3p    -46.9473
       3d    -46.9473

 E-fermi :   3.6484     XC(G=0):  -7.9652     alpha+bet : -9.7375

 k-point     1 :       0.0000    0.0000    0.0000
  band No.  band energies     occupation
      1     -13.8645      2.00000
      2     -13.8645      2.00000
      3     -13.8645      2.00000
      4     -13.7843      2.00000
      5     -13.7843      2.00000
      6     -10.4575      2.00000
      7       3.5085      2.00000
      8       3.5085      2.00000
      9       3.5085      2.00000
     10       4.9229      0.00000
     11       8.0457      0.00000
     12       8.0457      0.00000
     13       8.0457      0.00000
     14      12.0841      0.00000
     15      14.6021      0.00000
     16      14.6067      0.00000

[...]

 k-point   162 :       0.5000    0.5000    0.5000
  band No.  band energies     occupation
      1     -13.9176      2.00000
      2     -13.8463      2.00000
      3     -13.8463      2.00000
      4     -13.7817      2.00000
      5     -13.7817      2.00000
      6      -8.5376      2.00000
      7      -3.6982      2.00000
      8       2.2786      2.00000
      9       2.2786      2.00000
     10       5.2714      0.00000
     11       8.9650      0.00000
     12       8.9650      0.00000
     13      12.1591      0.00000
     14      15.0936      0.00000
     15      16.5453      0.00000
     16      16.5589      0.00000

 soft charge-density along one line, spin component           1
         0         1         2         3         4         5         6         7         8         9
 total charge-density along one line

------------------------ aborting loop because EDIFF is reached ----------------------------------------

 total charge

# of ion     s       p       d       tot
  1        0.840   0.802  10.010  11.652
  2        1.217   1.649   0.032   2.898
tot        2.057   2.451  10.042  14.550

  FORCE on cell =-STRESS in cart. coord.  units (eV):
  Direction    XX          YY          ZZ          XY          YZ          ZX
  Alpha Z    60.29113    60.29113    60.29113
  Ewald    -421.83412  -421.83412  -421.83412    -0.00000    -0.00000    -0.00000
  Hartree   241.17621   241.17621   241.17621     0.00000    -0.00000    -0.00000
  E(xc)     -74.01919   -74.01919   -74.01919     0.00001    -0.00001    -0.00001
  Local     -60.29740   -60.29740   -60.29740     0.00011    -0.00011    -0.00011
  n-local   153.61069   157.37293   156.81845    -0.81181    -1.63134    -0.52023
  augment   108.13454   108.13454   108.13454    -0.00010     0.00010     0.00010
  Kinetic   106.75708   111.08708   111.90769    -1.59986    -3.94471    -1.30186
  Fock            NaN         NaN         NaN         NaN         NaN         NaN
  Total           NaN         NaN         NaN         NaN         NaN         NaN
  in kB           NaN         NaN         NaN         NaN         NaN         NaN

 VOLUME and BASIS-vectors are now :
  energy-cutoff  :      500.00
  volume of cell :       45.18
      direct lattice vectors                 reciprocal lattice vectors
     2.826800000  2.826800000  0.000000000     0.176878449  0.176878449  0.176878449
     2.826800000  0.000000000 -2.826800000     0.176878449 -0.176878449 -0.176878449
     0.000000000  2.826800000 -2.826800000    -0.176878449  0.176878449 -0.176878449

  length of vectors
     3.997698898  3.997698898  3.997698898     0.306362461  0.306362461  0.306362461

 FORCES acting on ions:
    Electron-Ion                     Ewald-Force                    Non-Local-Force
   0.302E-06 0.321E-06 -.321E-06   -.206E-13 -.524E-14 0.156E-13   -.382E-16 -.416E-16 0.833E-16
   -.256E-06 -.384E-06 0.384E-06   0.196E-13 0.339E-14 -.154E-13   -.156E-16 -.278E-16 0.278E-16
   0.480E-06 0.365E-06 -.365E-06   -.109E-14 -.185E-14 0.200E-15   -.538E-16 -.694E-16 0.111E-15

 POSITION                                       TOTAL-FORCE (eV/Angst)
      0.00000      0.00000      0.00000              NaN           NaN           NaN
      1.41340      1.41340     -1.41340              NaN           NaN           NaN
    total drift:                                     NaN           NaN           NaN

  FREE ENERGIE OF THE ION-ELECTRON SYSTEM (eV)
  free  energy   TOTEN  =        -9.84572128 eV

  energy  without entropy=       -9.84572128  energy(sigma->0) =       -9.84572128

 reached required accuracy - stopping structural energy minimisation
 writing wavefunctions

 total charge

# of ion     s       p       d       tot
  1        0.840   0.802  10.010  11.652
  2        1.217   1.649   0.032   2.898
tot        2.057   2.451  10.042  14.550