 vasp.5.4.1 24Jun15 (build Nov 25 2015 16:01:35) complex

 executed on         CrayXC-Intel date 2016.05.24  16:39:45

 INCAR:
 POTCAR:    PAW_PBE C 08Apr2002
 POTCAR:    PAW_PBE N 08Apr2002
 POTCAR:    PAW_PBE H 15Jun2001
 POTCAR:    PAW_PBE Pb_d 06Sep2000
 POTCAR:    PAW_PBE I 08Apr2002

 POTCAR:    PAW_PBE C 08Apr2002
   VRHFIN =C: s2p2

   TITEL  = PAW_PBE C 08Apr2002
   POMASS =   12.011; ZVAL   =    4.000    mass and valenz
   ENMAX  =  400.000; ENMIN  =  300.000 eV

 POTCAR:    PAW_PBE N 08Apr2002
   VRHFIN =N: s2p3

[...]

 POTCAR:    PAW_PBE H 15Jun2001
   VRHFIN =H: ultrasoft test

   TITEL  = PAW_PBE H 15Jun2001
   POMASS =    1.000; ZVAL   =    1.000    mass and valenz
   ENMAX  =  250.000; ENMIN  =  200.000 eV

 POTCAR:    PAW_PBE Pb_d 06Sep2000
   VRHFIN =Pb:

   TITEL  = PAW_PBE Pb_d 06Sep2000
   POMASS =  207.200; ZVAL   =   14.000    mass and valenz
   ENMAX  =  237.835; ENMIN  =  178.376 eV

 POTCAR:    PAW_PBE I 08Apr2002
   VRHFIN =I : s2p5

   TITEL  = PAW_PBE I 08Apr2002
   POMASS =  126.904; ZVAL   =    7.000    mass and valenz
   ENMAX  =  175.647; ENMIN  =  131.735 eV

  PAW_PBE C 08Apr2002                   :
  PAW_PBE N 08Apr2002                   :
  PAW_PBE H 15Jun2001                   :
  PAW_PBE Pb_d 06Sep2000                :
  PAW_PBE I 08Apr2002                   :

 POSCAR: MA-Pb-I (Github)
  positions in direct lattice
  velocities in cartesian coordinates
 exchange correlation table for  LEXCH =       14
   RHO(1)=    0.500       N(1)  =     2000
   RHO(2)=  100.500       N(2)  =     4000

 ion  position               nearest neighbor table
   1  0.903  1.000  0.996-   3 1.10   5 1.10   4 1.10   2 1.48
   2  0.137  1.000  0.025-   6 1.04   7 1.04   8 1.05   1 1.48
   3  0.865  1.000  0.826-   1 1.10
   4  0.838  0.144  0.072-   1 1.10
   5  0.838  0.857  0.072-   1 1.10
   6  0.208  0.134  0.958-   2 1.04
   7  0.207  0.865  0.958-   2 1.04
   8  0.182  0.000  0.185-   2 1.05
   9  0.476  0.500  0.476-  12 3.07  10 3.15  11 3.15  11 3.15  10 3.18  12 3.23
  10  0.427  0.500  0.973-   9 3.15   9 3.18
  11  0.436  0.000  0.507-   9 3.15   9 3.15
  12  0.963  0.500  0.448-   9 3.07   9 3.23

  LATTYP: Found a simple monoclinic cell.
 ALAT       =     6.2901201248
 B/A-ratio  =     0.9974197462
 C/A-ratio  =     1.4105278383
 COS(beta)  =    -0.7044835581

  Lattice vectors:

 A1 = (  -6.2901201248,   0.0000000000,   0.0000000000)
 A2 = (  -0.0000776940,  -6.2738900180,   0.0000000000)
 A3 = (   6.2504525538,  -0.0001537931,   6.2969150416)

Analysis of symmetry for initial positions (statically):
 Subroutine PRICEL returns:
 Original cell was already a primitive cell.

 Routine SETGRP: Setting up the symmetry group for a
 simple monoclinic supercell.

 Subroutine GETGRP returns: Found  1 space group operations
 (whereof  1 operations were pure point group operations)
 out of a pool of  4 trial point group operations.

The static configuration has the point symmetry C_1 .

Analysis of symmetry for dynamics (positions and initial velocities):
 Subroutine PRICEL returns:
 Original cell was already a primitive cell.

 Routine SETGRP: Setting up the symmetry group for a
 simple monoclinic supercell.

 Subroutine GETGRP returns: Found  1 space group operations
 (whereof  1 operations were pure point group operations)
 out of a pool of  4 trial point group operations.

The dynamic configuration has the point symmetry C_1 .

 Subroutine INISYM returns: Found  1 space group operations
 (whereof  1 operations are pure point group operations),
 and found     1 'primitive' translations

 KPOINTS: Automatically generated mesh SCF: 112, k
  k-points in reciprocal lattice
Space group operators:
 irot       det(A)        alpha          n_x          n_y          n_z        tau_x        tau_y        tau_z
    1     1.000000     0.000000     1.000000     0.000000     0.000000     0.000000     0.000000     0.000000

 I would recommend the setting:
   dimension x,y,z NGX =    46 NGY =   46 NGZ =   46
 SYSTEM =  Name
 POSCAR =  MA-Pb-I (Github)

 Startparameter for this run:
   NWRITE =      2    write-flag & timer
   PREC   = accura    normal or accurate (medium, high low for compatibility)
   ISTART =      0    job   : 0-new  1-cont  2-samecut
   ICHARG =     11    charge: 1-file 2-atom 10-const
   ISPIN  =      1    spin polarized calculation?
   LNONCOLLINEAR =      F non collinear calculations
   LSORBIT =      F    spin-orbit coupling
   INIWAV =      1    electr: 0-lowe 1-rand  2-diag
   LASPH  =      F    aspherical Exc in radial PAW
   METAGGA=      F    non-selfconsistent MetaGGA calc.

 Electronic Relaxation 1
   ENCUT  =  500.0 eV  36.75 Ry    6.06 a.u.  11.47 11.44 11.48*2*pi/ulx,y,z
   ENINI  =  500.0     initial cutoff
   ENAUG  =  644.9 eV  augmentation charge cutoff
   NELM   =     60;   NELMIN=  2; NELMDL=  0     # of ELM steps
   EDIFF  = 0.1E-05   stopping-criterion for ELM
   LREAL  =      F    real-space projection
   NLSPLINE    = F    spline interpolate recip. space projectors
   LCOMPAT=      F    compatible to vasp.4.4
   GGA_COMPAT  = T    GGA compatible to vasp.4.4-vasp.4.6
   LMAXPAW     = -100 max onsite density
   LMAXMIX     =    2 max onsite mixed and CHGCAR
   VOSKOWN=      0    Vosko Wilk Nusair interpolation
   ROPT   =    0.00000   0.00000   0.00000   0.00000
   ROPT   =    0.00000
 Ionic relaxation
   EDIFFG = -.5E-02   stopping-criterion for IOM
   NSW    =      0    number of steps for IOM
   NBLOCK =      1;   KBLOCK =      1    inner block; outer block
   IBRION =     -1    ionic relax: 0-MD 1-quasi-New 2-CG
   NFREE  =      1    steps in history (QN), initial steepest desc. (CG)
   ISIF   =      3    stress and relaxation
   IWAVPR =     10    prediction:  0-non 1-charg 2-wave 3-comb
   ISYM   =      2    0-nonsym 1-usesym 2-fastsym
   LCORR  =      T    Harris-Foulkes like correction to forces

   POTIM  = 0.5000    time-step for ionic-motion
   TEIN   =    0.0    initial temperature
   TEBEG  =    0.0;   TEEND  =   0.0 temperature during run
   SMASS  =  -3.00    Nose mass-parameter (am)
   estimated Nose-frequenzy (Omega)   =  0.10E-29 period in steps =****** mass=  -0.904E-27a.u.
   SCALEE = 1.0000    scale energy and forces
   NPACO  =    256;   APACO  = 16.0  distance and # of slots for P.C.
   PSTRESS=    0.0 pullay stress

  Mass of Ions in am
   POMASS =  12.01 14.00  1.00207.20126.90
  Ionic Valenz
   ZVAL   =   4.00  5.00  1.00 14.00  7.00
  Atomic Wigner-Seitz radii
  virtual crystal weights
   VCA    =   1.00  1.00  1.00  1.00  1.00
   NELECT =      50.0000    total number of electrons
   NUPDOWN=      -1.0000    fix difference up-down

 DOS related values:
   EMIN   =  10.00;   EMAX   =-10.00  energy-range for DOS
   EFERMI =   0.00
   ISMEAR =     0;   SIGMA  =   0.01  broadening in eV -4-tet -1-fermi 0-gaus

 Electronic relaxation 2 (details)
   IALGO  =     38    algorithm
   LDIAG  =      T    sub-space diagonalisation (order eigenvalues)
   LSUBROT=      F    optimize rotation matrix (better conditioning)
   TURBO    =      0    0=normal 1=particle mesh
   IRESTART =      0    0=no restart 2=restart with 2 vectors
   NREBOOT  =      0    no. of reboots
   NMIN     =      0    reboot dimension
   EREF     =   0.00    reference energy to select bands
   IMIX   =      4    mixing-type and parameters
     AMIX     =   0.40;   BMIX     =  1.00
     AMIX_MAG =   1.60;   BMIX_MAG =  1.00
     AMIN     =   0.01
     WC   =   100.;   INIMIX=   1;  MIXPRE=   1;  MAXMIX= -45

 Intra band minimization:
   WEIMIN = 0.0000     energy-eigenvalue tresh-hold
   EBREAK =  0.48E-08  absolut break condition
   DEPER  =   0.30     relativ break condition

   TIME   =   0.40     timestep for ELM

  volume/ion in A,a.u.               =      20.71       139.75
  Fermi-wavevector in a.u.,A,eV,Ry     =   0.959306  1.812825 12.520994  0.920267
  Thomas-Fermi vector in A             =   2.088490

 Write flags
   LWAVE  =      T    write WAVECAR
   LCHARG =      T    write CHGCAR
   LVTOT  =      F    write LOCPOT, total local potential
   LVHAR  =      F    write LOCPOT, Hartree potential only
   LELF   =      F    write electronic localiz. function (ELF)
   LORBIT =     10    0 simple, 1 ext, 2 COOP (PROOUT)

 Dipole corrections
   LMONO  =      F    monopole corrections only (constant potential shift)
   LDIPOL =      F    correct potential (dipole corrections)
   IDIPOL =      0    1-x, 2-y, 3-z, 4-all directions
   EPSILON=  1.0000000 bulk dielectric constant

 Core level calculations are selected ICORELEVEL =  1
 Exchange correlation treatment:
   GGA     =    PS    GGA type
   VOSKOWN=      0    Vosko Wilk Nusair interpolation
   LHFCALC =     F    Hartree Fock is set to
   LHFONE  =     F    Hartree Fock one center treatment
   AEXX    =    0.0000 exact exchange contribution

 Linear response parameters
   LEPSILON=     F    determine dielectric tensor
   LRPA    =     F    only Hartree local field effects (RPA)
   LNABLA  =     F    use nabla operator in PAW spheres
   LVEL    =     F    velocity operator in full k-point grid
   LINTERFAST=   F  fast interpolation
   KINTER  =     0    interpolate to denser k-point grid
   CSHIFT  =0.1000    complex shift for real part using Kramers Kronig
   OMEGAMAX=  -1.0    maximum frequency
   DEG_THRESHOLD= 0.2000000E-02 threshold for treating states as degnerate
   RTIME   =    0.100 relaxation time in fs

 Orbital magnetization related:
   ORBITALMAG=     F  switch on orbital magnetization
   LCHIMAG   =     F  perturbation theory with respect to B field
   DQ        =  0.001000  dq finite difference perturbation B field

 Static calculation
 charge density and potential remain constant during run
 non-spin polarized calculation
 Variant of blocked Davidson
 Davidson routine will perform the subspace rotation
 perform sub-space diagonalisation
    after iterative eigenvector-optimisation
 no mixing
 using additional bands           27
 reciprocal scheme for non local part
 use partial core corrections
 calculate Harris-corrections to forces
   (improved forces if not selfconsistent)
 use gradient corrections
 WARNING: stress and forces are not correct
  (second derivative of E(xc) not defined)
 use of overlap-Matrix (Vanderbilt PP)
 Gauss-broadening in eV      SIGMA  =   0.01

  energy-cutoff  :      500.00
  volume of cell :      248.50
      direct lattice vectors                 reciprocal lattice vectors
     6.290120125  0.000000000  0.000000000     0.158979476 -0.000001969  0.001001495
     0.000077694  6.273890018  0.000000000     0.000000000  0.159390744  0.000003893
    -0.039667571 -0.000153793  6.296915042     0.000000000  0.000000000  0.158807923

  length of vectors
     6.290120125  6.273890018  6.297039986     0.158982630  0.159390744  0.158807923

 k-points in units of 2pi/SCALE and weight: Automatically generated mesh SCF: 112, k
   0.00000000  0.00000000  0.00000000       0.005
   0.02649658 -0.00000033  0.00016692       0.009
   0.05299316 -0.00000066  0.00033383       0.009
   0.07948974 -0.00000098  0.00050075       0.005
   0.00000000  0.02656512  0.00000065       0.009
   0.02649658  0.02656480  0.00016756       0.009
   0.05299316  0.02656447  0.00033448       0.009
[...]
 k-point ** :   0.0374 0.0374 0.0374  plane waves:    6325
 k-point ** :   0.0402 0.0402 0.0402  plane waves:    6323
 k-point ** :   0.0431 0.0431 0.0431  plane waves:    6324
 k-point ** :   0.0460 0.0460 0.0460  plane waves:    6323
 k-point ** :   0.0489 0.0489 0.0489  plane waves:    6319
 k-point ** :   0.0517 0.0517 0.0517  plane waves:    6319
 k-point ** :   0.0546 0.0546 0.0546  plane waves:    6317
 k-point ** :   0.0575 0.0575 0.0575  plane waves:    6314
 k-point ** :   0.0603 0.0603 0.0603  plane waves:    6315
 k-point ** :   0.0632 0.0632 0.0632  plane waves:    6307
 k-point ** :   0.0661 0.0661 0.0661  plane waves:    6305
 k-point ** :   0.0690 0.0690 0.0690  plane waves:    6303
 k-point ** :   0.0718 0.0718 0.0718  plane waves:    6305
 k-point ** :   0.0747 0.0747 0.0747  plane waves:    6303
 k-point ** :   0.0776 0.0776 0.0776  plane waves:    6304
 k-point ** :   0.0805 0.0805 0.0805  plane waves:    6306
 k-point ** :   0.0833 0.0833 0.0833  plane waves:    6307
 k-point ** :   0.0862 0.0862 0.0862  plane waves:    6309
 k-point ** :   0.0891 0.0891 0.0891  plane waves:    6312
 k-point ** :   0.0920 0.0920 0.0920  plane waves:    6314
 k-point ** :   0.0948 0.0948 0.0948  plane waves:    6319
 k-point ** :   0.0977 0.0977 0.0977  plane waves:    6320
 k-point ** :   0.1006 0.1006 0.1006  plane waves:    6320
 k-point ** :   0.1034 0.1034 0.1034  plane waves:    6317
 k-point ** :   0.1063 0.1063 0.1063  plane waves:    6317
 k-point ** :   0.1092 0.1092 0.1092  plane waves:    6317
 k-point ** :   0.1121 0.1121 0.1121  plane waves:    6318
 k-point ** :   0.1149 0.1149 0.1149  plane waves:    6320
 k-point ** :   0.1178 0.1178 0.1178  plane waves:    6323
 k-point ** :   0.1207 0.1207 0.1207  plane waves:    6320
 k-point ** :   0.1236 0.1236 0.1236  plane waves:    6321
 k-point ** :   0.1264 0.1264 0.1264  plane waves:    6320
 k-point ** :   0.1293 0.1293 0.1293  plane waves:    6324
 k-point ** :   0.1322 0.1322 0.1322  plane waves:    6327
[...]
 k-point ** :   0.5000 0.5000 0.4300  plane waves:    6274
 k-point ** :   0.5000 0.5000 0.4350  plane waves:    6268
 k-point ** :   0.5000 0.5000 0.4400  plane waves:    6264
 k-point ** :   0.5000 0.5000 0.4450  plane waves:    6264
 k-point ** :   0.5000 0.5000 0.4500  plane waves:    6262
 k-point ** :   0.5000 0.5000 0.4550  plane waves:    6266
 k-point ** :   0.5000 0.5000 0.4600  plane waves:    6263
 k-point ** :   0.5000 0.5000 0.4650  plane waves:    6260
 k-point ** :   0.5000 0.5000 0.4700  plane waves:    6260
 k-point ** :   0.5000 0.5000 0.4750  plane waves:    6262
 k-point ** :   0.5000 0.5000 0.4800  plane waves:    6264
 k-point ** :   0.5000 0.5000 0.4850  plane waves:    6268
 k-point ** :   0.5000 0.5000 0.4900  plane waves:    6268
 k-point ** :   0.5000 0.5000 0.4950  plane waves:    6272
 k-point ** :   0.5000 0.5000 0.5000  plane waves:    6272

 maximum and minimum number of plane-waves per node :      1077     1020

 maximum number of plane-waves:      6366
 maximum index in each direction:
   IXMAX=   11   IYMAX=   11   IZMAX=   11
   IXMIN=  -11   IYMIN=  -11   IZMIN=  -11

 NGX is ok and might be reduce to  46
 NGY is ok and might be reduce to  46
 NGZ is ok and might be reduce to  46

 parallel 3D FFT for wavefunctions:
    minimum data exchange during FFTs selected (reduces bandwidth)
 parallel 3D FFT for charge:
    minimum data exchange during FFTs selected (reduces bandwidth)

 initial charge density was supplied:
 number of electron      49.9999995 magnetization
 keeping initial charge density in first step

 Maximum index for augmentation-charges         1007 (set IRDMAX)

 First call to EWALD:  gamma=   0.282
 Maximum number of real-space cells 3x 3x 3
 Maximum number of reciprocal cells 3x 3x 3

 FEWALD executed in parallel

----------------------------------------- Iteration    1(   1)  ---------------------------------------

 eigenvalue-minimisations  : 65328
 total energy-change (2. order) : 0.3337259E+03  (-0.1867839E+04)
 number of electron      49.9999995 magnetization
 augmentation part       49.9999995 magnetization

 Free energy of the ion-electron system (eV)
  alpha Z        PSCENC =        46.46595848
  Ewald energy   TEWEN  =     -1941.32201603
  -Hartree energ DENC   =     -1052.24626536
  -exchange      EXHF   =         0.00000000
  -V(xc)+E(xc)   XCENC  =        52.38041161
  PAW double counting   =      3630.16363184    -3536.86846674
  entropy T*S    EENTRO =        -0.00007964
  eigenvalues    EBANDS =        41.55450309
  atomic energy  EATOM  =      3093.59820730
  Solvation  Ediel_sol  =         0.00000000
  free energy    TOTEN  =       333.72588454 eV

  energy without entropy =      333.72596419  energy(sigma->0) =      333.72592436

[...]

 eigenvalue-minimisations  : 72656
 total energy-change (2. order) :-0.3445600E+03  (-0.3179623E+03)
 number of electron      49.9999995 magnetization
 augmentation part       49.9999995 magnetization

[...]

----------------------------------------- Iteration    1(   8)  ---------------------------------------

 eigenvalue-minimisations  : 77108
 total energy-change (2. order) :-0.5465768E-06  (-0.5465562E-06)
 number of electron      49.9999995 magnetization
 augmentation part       49.9999995 magnetization

 Free energy of the ion-electron system (eV)
  alpha Z        PSCENC =        46.46595848
  Ewald energy   TEWEN  =     -1941.32201603
  -Hartree energ DENC   =     -1052.24626536
  -exchange      EXHF   =         0.00000000
  -V(xc)+E(xc)   XCENC  =        52.38041161
  PAW double counting   =      3630.16363184    -3536.86846674
  entropy T*S    EENTRO =        -0.00000000
  eigenvalues    EBANDS =      -344.24099492
  atomic energy  EATOM  =      3093.59820730
  Solvation  Ediel_sol  =         0.00000000
  free energy    TOTEN  =       -52.06953382 eV

  energy without entropy =      -52.06953382  energy(sigma->0) =      -52.06953382

 the core state eigenenergies are
   1-  1s   -264.1056
   2-  1s   -377.5478
   3-
   4-
   5-
   6-
   7-
   8-
   9-  1s -88085.7473  2s -15747.2406  2p -13502.0038  3s  -3775.4910  3p  -3132.0286
       3d  -2477.0803  4s   -850.0178  4p   -639.2250  4d   -395.6123  4f   -126.6443
       5s   -137.8224  5p    -79.5221
  10-  1s -32968.5479  2s  -5086.7468  2p  -4564.1632  3s  -1020.4596  3p   -851.2045
       3d   -597.9408  4s   -172.8119  4p   -119.8009  4d    -42.5765
  11-  1s -32968.4818  2s  -5086.6809  2p  -4564.0973  3s  -1020.3940  3p   -851.1389
       3d   -597.8751  4s   -172.7467  4p   -119.7358  4d    -42.5115
  12-  1s -32968.2160  2s  -5086.4116  2p  -4563.8285  3s  -1020.1195  3p   -850.8645
       3d   -597.6012  4s   -172.4635  4p   -119.4516  4d    -42.2245

 E-fermi :   1.5396     XC(G=0):  -7.7501     alpha+bet : -7.1939

 k-point     1 :       0.0000    0.0000    0.0000
  band No.  band energies     occupation
      1     -18.2657      2.00000
      2     -15.0569      2.00000
      3     -15.0325      2.00000
      4     -14.9887      2.00000
      5     -14.9708      2.00000
      6     -14.9665      2.00000
      7     -11.3065      2.00000
      8     -10.8394      2.00000
      9     -10.1284      2.00000
     10      -9.8489      2.00000
     11      -7.7815      2.00000
     12      -7.6166      2.00000
     13      -5.7978      2.00000
     14      -5.3359      2.00000
     15      -3.5047      2.00000
     16      -3.4896      2.00000
     17      -2.1223      2.00000
     18      -2.1217      2.00000
     19      -1.9660      2.00000
     20      -0.0055      2.00000
     21       0.0281      2.00000
     22       0.1056      2.00000
     23       0.2361      2.00000
     24       0.5049      2.00000
     25       0.5164      2.00000
     26       5.0338      0.00000
     27       5.9645      0.00000
     28       6.1183      0.00000
     29       6.3878      0.00000
     30       6.4840      0.00000
     31       6.5189      0.00000
     32       7.2207      0.00000
     33       7.6361      0.00000
     34       7.8210      0.00000
     35       8.4519      0.00000
     36       8.8384      0.00000
     37       9.0204      0.00000
     38       9.3726      0.00000
     39       9.8560      0.00000
     40      10.1277      0.00000
     41      10.2212      0.00000
     42      10.4581      0.00000
     43      10.6336      0.00000
     44      11.6482      0.00000
     45      11.8969      0.00000
     46      11.8984      0.00000
     47      12.3209      0.00000
     48      12.6368      0.00000
     49      12.9269      0.00000
     50      12.9805      0.00000
     51      13.0551      0.00000
     52      13.8427      0.00000

[...]

 k-point   628 :       0.5000    0.5000    0.5000
  band No.  band energies     occupation
      1     -18.2627      2.00000
      2     -15.0356      2.00000
      3     -15.0124      2.00000
      4     -14.9900      2.00000
      5     -14.9723      2.00000
      6     -14.9679      2.00000
      7     -11.3077      2.00000
      8     -10.4433      2.00000
      9     -10.3695      2.00000
     10     -10.0237      2.00000
     11      -7.7031      2.00000
     12      -7.5846      2.00000
     13      -7.0628      2.00000
     14      -5.7688      2.00000
     15      -3.5021      2.00000
     16      -3.4900      2.00000
     17      -1.0383      2.00000
     18      -0.6375      2.00000
     19      -0.5971      2.00000
     20       0.0561      2.00000
     21       0.1182      2.00000
     22       0.4374      2.00000
     23       0.8458      2.00000
     24       0.8493      2.00000
     25       1.4772      2.00000
     26       2.9616      0.00000
     27       2.9687      0.00000
     28       3.1899      0.00000
     29       5.6707      0.00000
     30       7.1996      0.00000
     31       7.6115      0.00000
     32       7.7780      0.00000
     33       7.9315      0.00000
     34       8.3238      0.00000
     35       8.4825      0.00000
     36       8.6388      0.00000
     37       9.0909      0.00000
     38       9.1199      0.00000
     39       9.3493      0.00000
     40       9.7001      0.00000
     41      10.0574      0.00000
     42      10.5005      0.00000
     43      10.8016      0.00000
     44      11.0392      0.00000
     45      11.3549      0.00000
     46      12.0524      0.00000
     47      12.2433      0.00000
     48      12.4075      0.00000
     49      12.4350      0.00000
     50      13.1224      0.00000
     51      13.2671      0.00000
     52      13.4639      0.00000

 soft charge-density along one line, spin component           1
         0         1         2         3         4         5         6         7         8         9
 total charge-density along one line

------------------------ aborting loop because EDIFF is reached ----------------------------------------

 total charge

# of ion     s       p       d       tot
  1        0.836   1.770   0.000   2.606
  2        1.218   2.784   0.000   4.001
  3        0.628   0.045   0.000   0.673
  4        0.627   0.045   0.000   0.672
  5        0.627   0.045   0.000   0.673
  6        0.594   0.078   0.000   0.672
  7        0.594   0.078   0.000   0.671
  8        0.589   0.078   0.000   0.667
  9        1.470   0.524   9.839  11.834
 10        1.505   2.791   0.009   4.305
 11        1.505   2.791   0.009   4.306
 12        1.506   2.781   0.008   4.295
tot       11.701  13.809   9.865  35.376

  FORCE on cell =-STRESS in cart. coord.  units (eV):
  Direction    XX          YY          ZZ          XY          YZ          ZX
  Alpha Z    46.46596    46.46596    46.46596
  Ewald    -631.85511  -642.25523  -667.21442    -0.07437    -0.09326    21.50540
  Hartree   354.19783   356.78790   341.26445    -0.04951    -0.05753    12.75426
  E(xc)    -199.62874  -199.64543  -199.68894    -0.00020    -0.00000     0.04848
  Local    -618.12349  -606.95270  -567.79588     0.12571     0.14517   -33.82265
  n-local   452.47033   449.32683   449.26074    -0.00160    -0.00005     0.33569
  augment    13.24148    13.23189    13.11842    -0.00015     0.00004     0.02817
  Kinetic   583.40710   583.14913   584.95414     0.00093     0.00432    -0.84067
  Fock        0.00000     0.00000     0.00000     0.00000     0.00000     0.00000
  Total       0.17536     0.10835     0.36447     0.00081    -0.00131     0.00870
  in kB       1.13060     0.69857     2.34990     0.00523    -0.00844     0.05608

 VOLUME and BASIS-vectors are now :
  energy-cutoff  :      500.00
  volume of cell :      248.50
      direct lattice vectors                 reciprocal lattice vectors
     6.290120125  0.000000000  0.000000000     0.158979476 -0.000001969  0.001001495
     0.000077694  6.273890018  0.000000000     0.000000000  0.159390744  0.000003893
    -0.039667571 -0.000153793  6.296915042     0.000000000  0.000000000  0.158807923

  length of vectors
     6.290120125  6.273890018  6.297039986     0.158982630  0.159390744  0.158807923

 FORCES acting on ions
    electron-ion (+dipol)            ewald-force                    non-local-force                 convergence-correction
   0.893E+02 -.819E-01 0.171E+02   -.969E+02 0.863E-01 -.179E+02   0.761E+01 -.341E-02 0.855E+00   -.139E-02 0.206E-04 -.209E-03
   -.423E+02 -.787E-02 0.335E+01   0.412E+02 0.321E-02 -.333E+01   0.105E+01 0.173E-02 -.747E-02   -.117E-02 0.106E-03 -.249E-03
   0.171E+02 0.537E-01 0.494E+02   -.184E+02 -.616E-01 -.550E+02   0.136E+01 0.789E-02 0.555E+01   -.722E-04 0.427E-05 0.174E-03
   0.252E+02 -.389E+02 -.176E+02   -.275E+02 0.435E+02 0.200E+02   0.226E+01 -.464E+01 -.244E+01   -.393E-04 -.165E-03 -.114E-03
   0.253E+02 0.387E+02 -.177E+02   -.275E+02 -.434E+02 0.202E+02   0.226E+01 0.463E+01 -.245E+01   -.413E-04 0.171E-03 -.116E-03
   -.270E+02 -.490E+02 0.270E+02   0.300E+02 0.546E+02 -.298E+02   -.300E+01 -.559E+01 0.278E+01   0.249E-03 0.533E-03 -.289E-03
   -.269E+02 0.490E+02 0.268E+02   0.299E+02 -.546E+02 -.296E+02   -.299E+01 0.560E+01 0.277E+01   0.253E-03 -.527E-03 -.294E-03
   -.144E+02 -.750E-01 -.582E+02   0.162E+02 0.820E-01 0.648E+02   -.182E+01 -.687E-02 -.654E+01   0.134E-03 0.119E-04 0.612E-03
   -.314E+02 0.635E-01 -.104E+02   0.304E+02 -.626E-01 0.101E+02   0.102E+01 -.718E-03 0.277E+00   -.839E-03 -.199E-03 0.468E-03
   -.110E+02 0.716E-01 0.415E+01   0.110E+02 -.738E-01 -.408E+01   0.106E-01 0.236E-02 -.725E-01   0.188E-03 -.403E-04 -.206E-03
   -.128E+02 -.220E-01 -.173E+02   0.128E+02 0.215E-01 0.179E+02   0.207E-03 0.432E-03 -.540E+00   0.198E-03 0.459E-04 0.203E-03
   0.166E+01 0.305E-01 -.695E+01   -.112E+01 -.291E-01 0.679E+01   -.539E+00 -.145E-02 0.150E+00   0.225E-03 -.533E-04 0.231E-03
   -.724E+01 0.143E-02 -.330E+00   -.151E-13 -.230E-14 -.133E-13   0.724E+01 -.139E-02 0.329E+00   -.230E-02 -.919E-04 0.212E-03

 POSITION                                       TOTAL-FORCE (eV/Angst)
      5.63915      6.27350      6.27384         0.001827      0.001001     -0.004305
      0.85821      6.27280      0.15665        -0.002121     -0.002818      0.010884
      5.40518      6.27196      5.19958         0.006367      0.000008     -0.003450
      5.26698      0.90190      0.45292        -0.001305      0.000065     -0.004686
      5.26573      5.37368      0.45579        -0.001493     -0.000676     -0.004418
      1.26776      0.84227      6.03329         0.003134      0.002626      0.005167
      1.26657      5.42716      6.03557         0.002404     -0.000364      0.006119
      1.13753     -0.00001      1.16715        -0.004951      0.000138      0.002982
      2.97634      3.13707      2.99511        -0.001871      0.000008     -0.001853
      2.64610      3.13606      6.12444        -0.000848      0.000065     -0.000951
      2.72152      0.00020      3.18965        -0.000941     -0.000003      0.002480
      6.03902      3.13830      2.81942        -0.000203     -0.000051     -0.007970
    total drift:                               -0.000401     -0.000044     -0.000295

  FREE ENERGIE OF THE ION-ELECTRON SYSTEM (eV)
  free  energy   TOTEN  =       -52.06953382 eV

  energy  without entropy=      -52.06953382  energy(sigma->0) =      -52.06953382

 writing wavefunctions

 total charge

# of ion     s       p       d       tot
  1        0.836   1.770   0.000   2.606
  2        1.218   2.784   0.000   4.001
  3        0.628   0.045   0.000   0.673
  4        0.627   0.045   0.000   0.672
  5        0.627   0.045   0.000   0.673
  6        0.594   0.078   0.000   0.672
  7        0.594   0.078   0.000   0.671
  8        0.589   0.078   0.000   0.667
  9        1.470   0.524   9.839  11.834
 10        1.505   2.791   0.009   4.305
 11        1.505   2.791   0.009   4.306
 12        1.506   2.781   0.008   4.295
tot       11.701  13.809   9.865  35.376