 vasp.5.3.5 31Mar14 (build Mar 26 2015 15:03:36) complex

 executed on             LinuxIFC date 2015.10.08  13:13:05

 INCAR:
 POTCAR:    PAW_PBE Na 08Apr2002
 POTCAR:    PAW_PBE Cl 06Sep2000
 POTCAR:    PAW_PBE Na 08Apr2002
   VRHFIN =Na: s1p0

   TITEL  = PAW_PBE Na 08Apr2002
   POMASS =   22.990; ZVAL   =    1.000    mass and valenz
   ENMAX  =  101.968; ENMIN  =   76.476 eV

 POTCAR:    PAW_PBE Cl 06Sep2000
   VRHFIN =Cl: s2p5

   TITEL  = PAW_PBE Cl 06Sep2000
   POMASS =   35.453; ZVAL   =    7.000    mass and valenz
   ENMAX  =  262.472; ENMIN  =  196.854 eV

  PAW_PBE Na 08Apr2002                  :
  PAW_PBE Cl 06Sep2000                  :

 POSCAR: Cl1 Na1
  positions in direct lattice
 exchange correlation table for  LEXCH =        8
   RHO(1)=    0.500       N(1)  =     2000
   RHO(2)=  100.500       N(2)  =     4000

 ion  position               nearest neighbor table
   1  0.000  0.000  0.000-   6 2.83   7 2.83   8 2.83   8 2.83   7 2.83   6 2.83   2 4.00   3 4.00
                             2 4.00   2 4.00   4 4.00   3 4.00   2 4.00   3 4.00   4 4.00   4 4.00
   2  0.000  0.500  0.500-   5 2.83   7 2.83   8 2.83   7 2.83   8 2.83   5 2.83   1 4.00   4 4.00
                             1 4.00   1 4.00   3 4.00   3 4.00   1 4.00   3 4.00   4 4.00   4 4.00
   3  0.500  0.000  0.500-   5 2.83   6 2.83   8 2.83   6 2.83   5 2.83   8 2.83   1 4.00   4 4.00
                             1 4.00   2 4.00   4 4.00   2 4.00   4 4.00   1 4.00   2 4.00   4 4.00
   4  0.500  0.500  0.000-   5 2.83   6 2.83   7 2.83   5 2.83   6 2.83   7 2.83   2 4.00   3 4.00
                             1 4.00   1 4.00   3 4.00   2 4.00   3 4.00   1 4.00   2 4.00   3 4.00
   5  0.500  0.500  0.500-   2 2.83   3 2.83   4 2.83   4 2.83   3 2.83   2 2.83
   6  0.500  0.000  0.000-   1 2.83   3 2.83   4 2.83   3 2.83   4 2.83   1 2.83
   7  0.000  0.500  0.000-   1 2.83   2 2.83   4 2.83   2 2.83   1 2.83   4 2.83
   8  0.000  0.000  0.500-   1 2.83   2 2.83   3 2.83   1 2.83   2 2.83   3 2.83

  LATTYP: Found a simple cubic cell.
 ALAT       =     5.6572999954

  Lattice vectors:

 A1 = (   5.6572999954,   0.0000000000,   0.0000000000)
 A2 = (   0.0000000000,   5.6572999954,   0.0000000000)
 A3 = (   0.0000000000,   0.0000000000,   5.6572999954)

Analysis of symmetry for initial positions (statically):
 Subroutine PRICEL returns following result:

  LATTYP: Found a face centered cubic cell.
 ALAT       =     5.6572999954

[...]

   4 primitive cells build up your supercell.

 Routine SETGRP: Setting up the symmetry group for a
 simple cubic supercell.

 Subroutine GETGRP returns: Found 48 space group operations
 (whereof 48 operations were pure point group operations)
 out of a pool of 48 trial point group operations.

The static configuration has the point symmetry O_h .

Analysis of symmetry for dynamics (positions and initial velocities):
 Subroutine PRICEL returns following result:

  LATTYP: Found a face centered cubic cell.
 ALAT       =     5.6572999954

  Lattice vectors:

 A1 = (   2.8286499977,   2.8286499977,  -0.0000000000)
 A2 = (   2.8286499977,   0.0000000000,  -2.8286499977)
 A3 = (   0.0000000000,   2.8286499977,  -2.8286499977)

   4 primitive cells build up your supercell.

 Routine SETGRP: Setting up the symmetry group for a
 simple cubic supercell.

 Subroutine GETGRP returns: Found 48 space group operations
 (whereof 48 operations were pure point group operations)
 out of a pool of 48 trial point group operations.

The dynamic configuration has the point symmetry O_h .

 KPOINTS: Automatic mesh

Automatic generation of k-mesh.
Space group operators:
 irot       det(A)        alpha          n_x          n_y          n_z        tau_x        tau_y        tau_z
    1     1.000000     0.000000     1.000000     0.000000     0.000000     0.000000     0.000000     0.000000
    2    -1.000000     0.000000     1.000000     0.000000     0.000000     0.000000     0.000000     0.000000
    3     1.000000   120.000000    -0.577350    -0.577350    -0.577350     0.000000     0.000000     0.000000
    4    -1.000000   120.000000    -0.577350    -0.577350    -0.577350     0.000000     0.000000     0.000000
    5     1.000000   120.000000     0.577350     0.577350     0.577350     0.000000     0.000000     0.000000
    6    -1.000000   120.000000     0.577350     0.577350     0.577350     0.000000     0.000000     0.000000
    7     1.000000    90.000000     0.000000     0.000000    -1.000000     0.000000     0.000000     0.000000
    8    -1.000000    90.000000     0.000000     0.000000    -1.000000     0.000000     0.000000     0.000000
    9     1.000000   180.000000     0.000000     0.707107     0.707107     0.000000     0.000000     0.000000
   10    -1.000000   180.000000     0.000000     0.707107     0.707107     0.000000     0.000000     0.000000
   11     1.000000    90.000000     0.000000     1.000000     0.000000     0.000000     0.000000     0.000000
   12    -1.000000    90.000000     0.000000     1.000000     0.000000     0.000000     0.000000     0.000000
   13     1.000000   180.000000     0.000000     0.000000     1.000000     0.000000     0.000000     0.000000
   14    -1.000000   180.000000     0.000000     0.000000     1.000000     0.000000     0.000000     0.000000
   15     1.000000   120.000000    -0.577350     0.577350     0.577350     0.000000     0.000000     0.000000
   16    -1.000000   120.000000    -0.577350     0.577350     0.577350     0.000000     0.000000     0.000000
   17     1.000000   120.000000    -0.577350     0.577350    -0.577350     0.000000     0.000000     0.000000
   18    -1.000000   120.000000    -0.577350     0.577350    -0.577350     0.000000     0.000000     0.000000
   19     1.000000    90.000000     0.000000     0.000000     1.000000     0.000000     0.000000     0.000000
   20    -1.000000    90.000000     0.000000     0.000000     1.000000     0.000000     0.000000     0.000000
   21     1.000000    90.000000    -1.000000     0.000000     0.000000     0.000000     0.000000     0.000000
   22    -1.000000    90.000000    -1.000000     0.000000     0.000000     0.000000     0.000000     0.000000
   23     1.000000   180.000000     0.707107     0.000000     0.707107     0.000000     0.000000     0.000000
   24    -1.000000   180.000000     0.707107     0.000000     0.707107     0.000000     0.000000     0.000000
   25     1.000000   120.000000     0.577350    -0.577350     0.577350     0.000000     0.000000     0.000000
   26    -1.000000   120.000000     0.577350    -0.577350     0.577350     0.000000     0.000000     0.000000
   27     1.000000   120.000000    -0.577350    -0.577350     0.577350     0.000000     0.000000     0.000000
   28    -1.000000   120.000000    -0.577350    -0.577350     0.577350     0.000000     0.000000     0.000000
   29     1.000000   180.000000     1.000000     0.000000     0.000000     0.000000     0.000000     0.000000
   30    -1.000000   180.000000     1.000000     0.000000     0.000000     0.000000     0.000000     0.000000
   31     1.000000    90.000000     0.000000    -1.000000     0.000000     0.000000     0.000000     0.000000
   32    -1.000000    90.000000     0.000000    -1.000000     0.000000     0.000000     0.000000     0.000000
   33     1.000000   180.000000     0.707107     0.707107     0.000000     0.000000     0.000000     0.000000
   34    -1.000000   180.000000     0.707107     0.707107     0.000000     0.000000     0.000000     0.000000
   35     1.000000    90.000000     1.000000     0.000000     0.000000     0.000000     0.000000     0.000000
   36    -1.000000    90.000000     1.000000     0.000000     0.000000     0.000000     0.000000     0.000000
   37     1.000000   120.000000     0.577350    -0.577350    -0.577350     0.000000     0.000000     0.000000
   38    -1.000000   120.000000     0.577350    -0.577350    -0.577350     0.000000     0.000000     0.000000
   39     1.000000   180.000000     0.000000     1.000000     0.000000     0.000000     0.000000     0.000000
   40    -1.000000   180.000000     0.000000     1.000000     0.000000     0.000000     0.000000     0.000000
   41     1.000000   120.000000     0.577350     0.577350    -0.577350     0.000000     0.000000     0.000000
   42    -1.000000   120.000000     0.577350     0.577350    -0.577350     0.000000     0.000000     0.000000
   43     1.000000   180.000000     0.000000    -0.707107     0.707107     0.000000     0.000000     0.000000
   44    -1.000000   180.000000     0.000000    -0.707107     0.707107     0.000000     0.000000     0.000000
   45     1.000000   180.000000     0.707107    -0.707107     0.000000     0.000000     0.000000     0.000000
   46    -1.000000   180.000000     0.707107    -0.707107     0.000000     0.000000     0.000000     0.000000
   47     1.000000   180.000000     0.707107     0.000000    -0.707107     0.000000     0.000000     0.000000
   48    -1.000000   180.000000     0.707107     0.000000    -0.707107     0.000000     0.000000     0.000000

 Subroutine IBZKPT returns following result:

 Found     10 irreducible k-points:

 Following reciprocal coordinates:
            Coordinates               Weight
  0.000000  0.000000  0.000000      1.000000
  0.250000  0.000000  0.000000      6.000000
  0.500000  0.000000  0.000000      3.000000
  0.250000  0.250000  0.000000     12.000000
  0.500000  0.250000  0.000000     12.000000
  0.500000  0.500000  0.000000      3.000000
  0.250000  0.250000  0.250000      8.000000
  0.500000  0.250000  0.250000     12.000000
  0.500000  0.500000  0.250000      6.000000
  0.500000  0.500000  0.500000      1.000000

 Following cartesian coordinates:
            Coordinates               Weight
  0.000000  0.000000  0.000000      1.000000
  0.044191  0.000000  0.000000      6.000000
  0.088381  0.000000  0.000000      3.000000
  0.044191  0.044191  0.000000     12.000000
  0.088381  0.044191  0.000000     12.000000
  0.088381  0.088381  0.000000      3.000000
  0.044191  0.044191  0.044191      8.000000
  0.088381  0.044191  0.044191     12.000000
  0.088381  0.088381  0.044191      6.000000
  0.088381  0.088381  0.088381      1.000000

 I would recommend the setting:
   dimension x,y,z NGX =    31 NGY =   31 NGZ =   31
 SYSTEM =  Name
 POSCAR =  Cl1 Na1

 Startparameter for this run:
   NWRITE =      2    write-flag & timer
   PREC   = normal    normal or accurate (medium, high low for compatibility)
   ISTART =      0    job   : 0-new  1-cont  2-samecut
   ICHARG =      2    charge: 1-file 2-atom 10-const
   ISPIN  =      1    spin polarized calculation?
   LNONCOLLINEAR =      F non collinear calculations
   LSORBIT =      F    spin-orbit coupling
   INIWAV =      1    electr: 0-lowe 1-rand  2-diag
   LASPH  =      F    aspherical Exc in radial PAW
   METAGGA=      F    non-selfconsistent MetaGGA calc.

 Electronic Relaxation 1
   ENCUT  =  500.0 eV  36.75 Ry    6.06 a.u.  10.31 10.31 10.31*2*pi/ulx,y,z
   ENINI  =  500.0     initial cutoff
   ENAUG  =  356.2 eV  augmentation charge cutoff
   NELM   =     60;   NELMIN=  2; NELMDL=  0     # of ELM steps
   EDIFF  = 0.1E-05   stopping-criterion for ELM
   LREAL  =      F    real-space projection
[...]
 k-point 10 :   0.5000 0.5000 0.5000  plane waves:    4632

 maximum and minimum number of plane-waves per node :      4636     4540

 maximum number of plane-waves:      4636
 maximum index in each direction:
   IXMAX=   10   IYMAX=   10   IZMAX=   10
   IXMIN=  -10   IYMIN=  -10   IZMIN=  -10

 WARNING: aliasing errors must be expected set NGX to  42 to avoid them
 WARNING: aliasing errors must be expected set NGY to  42 to avoid them
 WARNING: aliasing errors must be expected set NGZ to  42 to avoid them
 aliasing errors are usually negligible using standard VASP settings
 and one can safely disregard these warnings

 serial   3D FFT for wavefunctions
 parallel 3D FFT for charge:
    minimum data exchange during FFTs selected (reduces bandwidth)

 Broyden mixing: mesh for mixing (old mesh)
   NGX = 21   NGY = 21   NGZ = 21
  (NGX  = 64   NGY  = 64   NGZ  = 64)
  gives a total of   9261 points

 initial charge density was supplied:
 charge density of overlapping atoms calculated
 number of electron      32.0000000 magnetization
 keeping initial charge density in first step

 Maximum index for augmentation-charges         8409 (set IRDMAX)

 First call to EWALD:  gamma=   0.313
 Maximum number of real-space cells 3x 3x 3
 Maximum number of reciprocal cells 3x 3x 3

 FEWALD executed in parallel

----------------------------------------- Iteration    1(   1)  ---------------------------------------

 eigenvalue-minimisations  :   420
 total energy-change (2. order) : 0.2505185E+03  (-0.1127460E+04)
 number of electron      32.0000000 magnetization
 augmentation part       32.0000000 magnetization

 Free energy of the ion-electron system (eV)
  alpha Z        PSCENC =         8.38102479
  Ewald energy   TEWEN  =     -1244.67109162
  -Hartree energ DENC   =      -367.43670187
  -exchange      EXHF   =         0.00000000
  -V(xc)+E(xc)   XCENC  =       -65.24621228
  PAW double counting   =      1460.60681360    -1311.02777745
  entropy T*S    EENTRO =        -0.00546965
  eigenvalues    EBANDS =       110.39406545
  atomic energy  EATOM  =      1659.52381812
  free energy    TOTEN  =       250.51846908 eV

  energy without entropy =      250.52393874  energy(sigma->0) =      250.52120391

[...]

 eigenvalue-minimisations  :   627
 total energy-change (2. order) :-0.2456426E+03  (-0.2356866E+03)
 number of electron      32.0000000 magnetization
 augmentation part       32.0000000 magnetization

[...]

 Broyden mixing:
  rms(total) = 0.43108E+00    rms(broyden)= 0.43106E+00
  rms(prec ) = 0.93809E+00
  weight for this iteration     100.00

[...]

 eigenvalues of (default mixing * dielectric matrix)
  average eigenvalue GAMMA=   0.9738
  0.9738

[...]

 the core state eigenenergies are
   1-  1s  -1026.6288  2s    -49.6643  2p    -21.5750
   2-  1s  -1026.6288  2s    -49.6643  2p    -21.5750
   3-  1s  -1026.6288  2s    -49.6643  2p    -21.5750
   4-  1s  -1026.6288  2s    -49.6643  2p    -21.5750
   5-  1s  -2742.2334  2s   -243.9155  2p   -182.8241
   6-  1s  -2742.2334  2s   -243.9155  2p   -182.8241
   7-  1s  -2742.2334  2s   -243.9155  2p   -182.8241
   8-  1s  -2742.2334  2s   -243.9155  2p   -182.8241

 E-fermi :  -0.0982     XC(G=0):  -7.9294     alpha+bet : -8.2173

 k-point     1 :       0.0000    0.0000    0.0000
  band No.  band energies     occupation
      1     -13.2151      2.00000
      2     -12.8403      2.00000
      3     -12.8403      2.00000
      4     -12.8403      2.00000
      5      -2.2371      2.00000
      6      -2.2371      2.00000
      7      -2.2371      2.00000
      8      -1.1748      2.00000
      9      -1.1748      2.00000
     10      -1.1748      2.00000
     11      -1.1748      2.00000
     12      -1.1748      2.00000
     13      -1.1748      2.00000
     14      -0.5804      2.00000
     15      -0.5804      2.00000
     16      -0.5804      2.00000
     17       4.4804      0.00000
     18       6.9104      0.00000
     19       6.9104      0.00000
     20       6.9104      0.00000
     21       7.5060      0.00000

[...]

 soft charge-density along one line, spin component           1
         0         1         2         3         4         5         6         7         8         9
 total charge-density along one line

------------------------ aborting loop because EDIFF is reached ----------------------------------------

 total charge

# of ion     s       p       d       tot
  1        0.042   0.033   0.000   0.075
  2        0.042   0.033   0.000   0.075
  3        0.042   0.033   0.000   0.075
  4        0.042   0.033   0.000   0.075
  5        1.587   3.583   0.000   5.171
  6        1.587   3.583   0.000   5.171
  7        1.587   3.583   0.000   5.171
  8        1.587   3.583   0.000   5.171
tot        6.515  14.465   0.000  20.981

  FORCE on cell =-STRESS in cart. coord.  units (eV):
  Direction    XX          YY          ZZ          XY          YZ          ZX
  Alpha Z     8.38102     8.38102     8.38102
  Ewald    -414.89070  -414.89070  -414.89070    -0.00000     0.00000    -0.00000
  Hartree   133.58962   133.58962   133.58962    -0.00000    -0.00000    -0.00000
  E(xc)    -114.38696  -114.38696  -114.38696    -0.00000    -0.00000     0.00000
  Local    -349.07888  -349.07888  -349.07888     0.00000    -0.00000    -0.00000
  n-local   336.85975   337.61647   337.89294    -0.28562    -0.26196    -0.10859
  augment   -77.36522   -77.36522   -77.36522    -0.00000    -0.00000     0.00000
  Kinetic   473.35922   476.86110   478.39744    -0.80292    -0.76782    -0.31293
  Fock        0.00000     0.00000     0.00000     0.00000     0.00000     0.00000
  Total      -0.08881    -0.08881    -0.08881    -0.00000    -0.00000     0.00000
  in kB      -0.78582    -0.78582    -0.78582    -0.00000    -0.00000     0.00000

 VOLUME and BASIS-vectors are now :
  energy-cutoff  :      500.00
  volume of cell :      181.06
      direct lattice vectors                 reciprocal lattice vectors
     5.657299995  0.000000000  0.000000000     0.176762767  0.000000000  0.000000000
     0.000000000  5.657299995  0.000000000     0.000000000  0.176762767  0.000000000
     0.000000000  0.000000000  5.657299995     0.000000000  0.000000000  0.176762767

[...]

 FORCES acting on ions
    electron-ion (+dipol)            ewald-force                    non-local-force                 convergence-correction
   0.128E-14 0.491E-14 -.896E-14   0.489E-16 -.605E-15 0.989E-16   -.186E-23 0.155E-24 0.414E-24   -.100E-16 -.158E-15 -.364E-16
   -.468E-16 0.349E-14 -.110E-13   0.486E-16 -.305E-15 0.382E-15   0.000E+00 0.000E+00 0.000E+00   0.586E-17 0.157E-16 0.550E-16
   0.390E-14 0.422E-14 0.678E-12   0.324E-15 -.610E-15 0.383E-15   0.207E-24 0.207E-24 0.129E-25   0.236E-16 -.135E-15 0.166E-17
   0.298E-14 0.284E-12 0.187E-12   0.324E-15 -.310E-15 0.549E-16   0.380E-23 0.000E+00 0.000E+00   0.469E-16 0.717E-16 -.612E-16
   0.674E-13 0.843E-12 0.303E-12   0.395E-14 0.345E-14 -.505E-15   0.000E+00 0.108E-22 0.331E-23   -.109E-13 -.186E-14 0.187E-13
   0.677E-13 -.129E-13 -.146E-11   0.384E-14 -.337E-14 -.132E-14   -.331E-23 0.331E-23 0.331E-23   -.963E-14 -.692E-14 0.176E-13
   -.778E-14 0.666E-13 0.170E-13   -.422E-14 0.406E-14 -.131E-14   -.569E-24 0.000E+00 0.000E+00   -.116E-13 0.103E-14 0.134E-13
   -.773E-14 -.815E-14 0.919E-13   -.433E-14 -.275E-14 0.213E-14   0.000E+00 0.331E-23 0.000E+00   -.988E-14 -.214E-14 0.159E-13
   0.128E-12 0.119E-11 -.203E-12   -.238E-17 -.439E-15 -.891E-16   -.173E-23 0.177E-22 0.704E-23   -.420E-13 -.101E-13 0.655E-13

 POSITION                                       TOTAL-FORCE (eV/Angst)
      0.00000      0.00000      0.00000         0.000000     -0.000000      0.000000
      0.00000      2.82865      2.82865         0.000000      0.000000      0.000000
      2.82865      0.00000      2.82865        -0.000000     -0.000000     -0.000000
      2.82865      2.82865      0.00000        -0.000000     -0.000000      0.000000
      2.82865      2.82865      2.82865         0.000000      0.000000      0.000000
      2.82865      0.00000      0.00000        -0.000000      0.000000      0.000000
      0.00000      2.82865      0.00000        -0.000000     -0.000000      0.000000
      0.00000      0.00000      2.82865        -0.000000      0.000000     -0.000000
    total drift:                                0.000000      0.000000     -0.000000

  FREE ENERGIE OF THE ION-ELECTRON SYSTEM (eV)
  free  energy   TOTEN  =       -27.25896817 eV

  energy  without entropy=      -27.25896817  energy(sigma->0) =      -27.25896817

[...]

 d Force = 0.0000000E+00[ 0.000E+00, 0.000E+00]  d Energy = 0.1145789E-03-0.115E-03
 d Force = 0.0000000E+00[ 0.000E+00, 0.000E+00]  d Ewald  = 0.6669147E+00-0.667E+00

 Steepest descent step on ions:
 trial-energy change:   -0.000115  1 .order   -0.000110   -0.000143   -0.000076
  (g-gl).g = 0.143E-03      g.g   = 0.143E-03  gl.gl    = 0.000E+00
 g(Force)  = 0.415E-60   g(Stress)= 0.143E-03 ortho     = 0.000E+00
 gamma     =   0.00000
 trial     =   1.00000
 opt step  =   1.65974  (harmonic =   2.15573) maximal distance =0.00000000
 next E    =   -27.259109   (d E  =  -0.00014)

 FEWALD executed in parallel

[...]

 eigenvalue-minimisations  :   240
 total energy-change (2. order) :-0.1202514E-05  (-0.7607167E-07)
 number of electron      32.0000043 magnetization
 augmentation part       -3.7390736 magnetization

 Broyden mixing:
  rms(total) = 0.12733E-03    rms(broyden)= 0.12733E-03
  rms(prec ) = 0.13420E-03
  weight for this iteration     100.00

 eigenvalues of (default mixing * dielectric matrix)
  average eigenvalue GAMMA=   1.6399
  2.4630  0.9395  1.5786  1.5786

[...]

----------------------------------------- Iteration    3(   6)  ---------------------------------------

 eigenvalue-minimisations  :   225
 total energy-change (2. order) : 0.2693330E-06  (-0.2823432E-07)
 number of electron      32.0000043 magnetization
 augmentation part       -3.7390736 magnetization

 Free energy of the ion-electron system (eV)
  alpha Z        PSCENC =         8.40341276
  Ewald energy   TEWEN  =     -1245.77838997
  -Hartree energ DENC   =      -400.07728771
  -exchange      EXHF   =         0.00000000
  -V(xc)+E(xc)   XCENC  =       -61.91409984
  PAW double counting   =      2005.54288178    -1856.88040920
  entropy T*S    EENTRO =        -0.00000000
  eigenvalues    EBANDS =      -136.07904542
  atomic energy  EATOM  =      1659.52381812
  free energy    TOTEN  =       -27.25911950 eV

  energy without entropy =      -27.25911950  energy(sigma->0) =      -27.25911950

 the core state eigenenergies are
   1-  1s  -1026.6050  2s    -49.6426  2p    -21.5534
   2-  1s  -1026.6050  2s    -49.6426  2p    -21.5534
   3-  1s  -1026.6050  2s    -49.6426  2p    -21.5534
   4-  1s  -1026.6050  2s    -49.6426  2p    -21.5534
   5-  1s  -2742.2177  2s   -243.9007  2p   -182.8092
   6-  1s  -2742.2177  2s   -243.9007  2p   -182.8092
   7-  1s  -2742.2177  2s   -243.9007  2p   -182.8092
   8-  1s  -2742.2177  2s   -243.9007  2p   -182.8092

 E-fermi :  -0.0726     XC(G=0):  -7.9402     alpha+bet : -8.2392

[...]

 k-point    10 :       0.5000    0.5000    0.5000
  band No.  band energies     occupation
      1     -12.9024      2.00000
      2     -12.9024      2.00000
      3     -12.9024      2.00000
      4     -12.9024      2.00000
      5      -2.4672      2.00000
      6      -2.4672      2.00000
      7      -2.4672      2.00000
      8      -2.4672      2.00000
      9      -0.8204      2.00000
     10      -0.8204      2.00000
     11      -0.8204      2.00000
     12      -0.8204      2.00000
     13      -0.8204      2.00000
     14      -0.8204      2.00000
     15      -0.8204      2.00000
     16      -0.8204      2.00000
     17       6.6877      0.00000
     18       6.6877      0.00000
     19       6.6877      0.00000
     20       6.6877      0.00000
     21       9.9949      0.00000

 soft charge-density along one line, spin component           1
         0         1         2         3         4         5         6         7         8         9
 total charge-density along one line

------------------------ aborting loop because EDIFF is reached ----------------------------------------

[...]

  FORCE on cell =-STRESS in cart. coord.  units (eV):
  Direction    XX          YY          ZZ          XY          YZ          ZX
  Alpha Z     8.40341     8.40341     8.40341
  Ewald    -415.25980  -415.25980  -415.25980     0.00000    -0.00000    -0.00000
  Hartree   133.36035   133.36035   133.36035    -0.00000    -0.00000    -0.00000
  E(xc)    -114.40908  -114.40908  -114.40908     0.00000     0.00000     0.00000
  Local    -348.53753  -348.53753  -348.53753     0.00000     0.00000     0.00000
  n-local   336.91558   337.67361   337.94932    -0.28708    -0.26342    -0.10918
  augment   -77.36058   -77.36058   -77.36058    -0.00000    -0.00000    -0.00000
  Kinetic   473.41788   476.92991   478.46791    -0.80658    -0.77156    -0.31439
  Fock        0.00000     0.00000     0.00000     0.00000     0.00000     0.00000
  Total      -0.01849    -0.01849    -0.01849    -0.00000    -0.00000    -0.00000
  in kB      -0.16404    -0.16404    -0.16404    -0.00000    -0.00000    -0.00000

 VOLUME and BASIS-vectors are now :
  energy-cutoff  :      500.00
  volume of cell :      180.58
      direct lattice vectors                 reciprocal lattice vectors
     5.652271558  0.000000000  0.000000000     0.176920021  0.000000000  0.000000000
    -0.000000000  5.652271558  0.000000000    -0.000000000  0.176920021  0.000000000
    -0.000000000 -0.000000000  5.652271558    -0.000000000 -0.000000000  0.176920021

  length of vectors
     5.652271558  5.652271558  5.652271558     0.176920021  0.176920021  0.176920021

 FORCES acting on ions
    electron-ion (+dipol)            ewald-force                    non-local-force                 convergence-correction
   0.487E-14 0.419E-14 -.995E-14   0.193E-15 -.107E-14 0.250E-15   0.415E-24 0.769E-27 0.165E-23   0.358E-16 -.153E-16 0.261E-16
   0.592E-14 0.271E-14 -.120E-13   0.190E-15 -.836E-15 0.570E-15   -.415E-24 0.186E-23 0.827E-24   0.512E-16 -.582E-17 -.265E-16
   0.449E-14 0.244E-14 0.677E-12   0.597E-15 -.109E-14 0.570E-15   -.165E-23 -.177E-26 0.827E-24   -.115E-15 -.499E-16 -.596E-16
   0.499E-14 0.283E-12 0.186E-12   0.594E-15 -.859E-15 0.279E-15   0.207E-23 -.598E-27 -.579E-23   -.878E-16 -.378E-16 0.302E-16
   0.681E-13 0.845E-12 0.301E-12   -.716E-15 0.212E-14 0.253E-15   0.304E-26 -.288E-26 0.000E+00   -.260E-14 0.201E-14 0.167E-13
   0.681E-13 -.125E-13 -.146E-11   -.936E-15 -.241E-15 -.162E-14   -.331E-23 -.993E-23 0.000E+00   -.119E-14 0.164E-14 0.195E-13
   -.652E-14 0.666E-13 0.175E-13   -.250E-15 0.180E-14 -.161E-14   0.616E-24 -.661E-23 0.165E-23   -.118E-14 -.166E-15 0.174E-13
   -.664E-14 -.807E-14 0.916E-13   -.470E-15 -.561E-15 0.780E-15   0.672E-24 0.621E-24 0.946E-23   0.975E-15 -.303E-15 0.173E-13
   0.143E-12 0.118E-11 -.206E-12   -.800E-15 -.739E-15 -.531E-15   -.160E-23 -.141E-22 0.863E-23   -.411E-14 0.306E-14 0.708E-13

 POSITION                                       TOTAL-FORCE (eV/Angst)
      0.00000     -0.00000      0.00000        -0.000000     -0.000000     -0.000000
     -0.00000      2.82614      2.82614         0.000000      0.000000      0.000000
      2.82614     -0.00000      2.82614         0.000000      0.000000      0.000000
      2.82614      2.82614      0.00000        -0.000000     -0.000000     -0.000000
      2.82614      2.82614      2.82614         0.000000      0.000000     -0.000000
      2.82614      0.00000      0.00000        -0.000000     -0.000000      0.000000
     -0.00000      2.82614      0.00000         0.000000     -0.000000     -0.000000
     -0.00000     -0.00000      2.82614        -0.000000      0.000000      0.000000
    total drift:                                0.000000      0.000000     -0.000000

  FREE ENERGIE OF THE ION-ELECTRON SYSTEM (eV)
  free  energy   TOTEN  =       -27.25911950 eV

  energy  without entropy=      -27.25911950  energy(sigma->0) =      -27.25911950

 d Force = 0.0000000E+00[ 0.000E+00, 0.000E+00]  d Energy = 0.3674937E-04-0.367E-04
 d Force = 0.0000000E+00[ 0.000E+00, 0.000E+00]  d Ewald  = 0.4403837E+00-0.440E+00

 reached required accuracy - stopping structural energy minimisation
 writing wavefunctions

 total charge

# of ion     s       p       d       tot
  1        0.042   0.033   0.000   0.075
  2        0.042   0.033   0.000   0.075
  3        0.042   0.033   0.000   0.075
  4        0.042   0.033   0.000   0.075
  5        1.587   3.584   0.000   5.171
  6        1.587   3.584   0.000   5.171
  7        1.587   3.584   0.000   5.171
  8        1.587   3.584   0.000   5.171
tot        6.516  14.468   0.000  20.985