 vasp.5.4.1 24Jun15 (build Nov 12 2015 13:14:48) complex

 executed on             IFC_2016 date 2015.12.23  12:24:40

 INCAR:
 POTCAR:   PAW C 31May2000
 POTCAR:   PAW N 31May2000
 POTCAR:   PAW H 06May1998
 POTCAR:   PAW Pb_d 30Apr1998
 POTCAR:   PAW I 03Oct2001

 POTCAR:   PAW C 31May2000
   VRHFIN =C: s2p2

   TITEL  = PAW C 31May2000
   POMASS =   12.011; ZVAL   =    4.000    mass and valenz
   ENMAX  =  400.000; ENMIN  =  300.000 eV
   QCUT   =   -5.516; QGAM   =   11.032    optimization parameters

   Description
     l     E      TYP  RCUT    TYP  RCUT
     0   .000     23  1.200
     0   .000     23  1.200
     1   .000     23  1.500
     1  2.500     23  1.500
     2   .000      7  1.500

 POTCAR:   PAW N 31May2000
   VRHFIN =N: s2p3

[...]

 POTCAR:   PAW H 06May1998
   VRHFIN =H: ultrasoft test

   TITEL  = PAW H 06May1998
   POMASS =    1.000; ZVAL   =    1.000    mass and valenz
   ENMAX  =  250.000; ENMIN  =  200.000 eV
   QCUT   =   -5.742; QGAM   =   11.483    optimization parameters

[...]

 POTCAR:   PAW Pb_d 30Apr1998
   VRHFIN =Pb:

   TITEL  = PAW Pb_d 30Apr1998
   POMASS =  207.200; ZVAL   =   14.000    mass and valenz
   ENMAX  =  237.817; ENMIN  =  178.363 eV
   QCUT   =   -4.181; QGAM   =    8.362    optimization parameters

[...]

 POTCAR:   PAW I 03Oct2001
   VRHFIN =I : s2p5

   TITEL  = PAW I 03Oct2001
   POMASS =  126.904; ZVAL   =    7.000    mass and valenz
   ENMAX  =  175.712; ENMIN  =  131.784 eV
   QCUT   =   -3.594; QGAM   =    7.187    optimization parameters

   Description
     l     E      TYP  RCUT    TYP  RCUT
     0   .000     23  2.300
     0   .000     23  2.300
     1   .000     23  2.300
     1   .000     23  2.300
     2   .000     23  2.300
     3  -.100     23  2.300

 PAW C 31May2000                        :
 PAW N 31May2000                        :
 PAW H 06May1998                        :
 PAW Pb_d 30Apr1998                     :
 PAW I 03Oct2001                        :

 POSCAR: MA-Pb-I (Github)
  positions in direct lattice
 exchange correlation table for  LEXCH =        2
   RHO(1)=    0.500       N(1)  =     2000
   RHO(2)=  100.500       N(2)  =     4000

 ion  position               nearest neighbor table
   1  0.903  1.000  0.996-   3 1.10   5 1.10   4 1.10   2 1.48
   2  0.137  1.000  0.025-   6 1.04   7 1.04   8 1.05   1 1.48
   3  0.865  1.000  0.826-   1 1.10
   4  0.838  0.144  0.072-   1 1.10
   5  0.838  0.857  0.072-   1 1.10
   6  0.208  0.134  0.958-   2 1.04
   7  0.207  0.865  0.958-   2 1.04
   8  0.182  0.000  0.185-   2 1.05
   9  0.476  0.500  0.476-  12 3.07  10 3.15  11 3.15  11 3.15  10 3.18  12 3.23
  10  0.427  0.500  0.973-   9 3.15   9 3.18
  11  0.436  0.000  0.507-   9 3.15   9 3.15
  12  0.963  0.500  0.448-   9 3.07   9 3.23

  LATTYP: Found a simple monoclinic cell.
 ALAT       =     6.2901201248
 B/A-ratio  =     0.9974197462
 C/A-ratio  =     1.4105278383
 COS(beta)  =    -0.7044835581

  Lattice vectors:

 A1 = (  -6.2901201248,   0.0000000000,   0.0000000000)
 A2 = (  -0.0000776940,  -6.2738900180,   0.0000000000)
 A3 = (   6.2504525538,  -0.0001537931,   6.2969150416)

Analysis of symmetry for initial positions (statically):
 Subroutine PRICEL returns:
 Original cell was already a primitive cell.

 Routine SETGRP: Setting up the symmetry group for a
 simple monoclinic supercell.

 Subroutine GETGRP returns: Found  1 space group operations
 (whereof  1 operations were pure point group operations)
 out of a pool of  4 trial point group operations.

The static configuration has the point symmetry C_1 .

Analysis of symmetry for dynamics (positions and initial velocities):
 Subroutine PRICEL returns:
 Original cell was already a primitive cell.

 Routine SETGRP: Setting up the symmetry group for a
 simple monoclinic supercell.

 Subroutine GETGRP returns: Found  1 space group operations
 (whereof  1 operations were pure point group operations)
 out of a pool of  4 trial point group operations.

The dynamic configuration has the point symmetry C_1 .

 Subroutine INISYM returns: Found  1 space group operations
 (whereof  1 operations are pure point group operations),
 and found     1 'primitive' translations

 KPOINTS: Automatic mesh

Automatic generation of k-mesh.
Space group operators:
 irot       det(A)        alpha          n_x          n_y          n_z        tau_x        tau_y        tau_z
    1     1.000000     0.000000     1.000000     0.000000     0.000000     0.000000     0.000000     0.000000

 Subroutine IBZKPT returns following result:

 Found    112 irreducible k-points:

 Following reciprocal coordinates:
            Coordinates               Weight
  0.000000  0.000000  0.000000      1.000000
  0.166667  0.000000  0.000000      2.000000
  0.333333  0.000000  0.000000      2.000000
  0.500000  0.000000  0.000000      1.000000
  0.000000  0.166667  0.000000      2.000000
  0.166667  0.166667  0.000000      2.000000
  0.333333  0.166667  0.000000      2.000000
  0.500000  0.166667  0.000000      2.000000
 -0.333333  0.166667 -0.000000      2.000000
 -0.166667  0.166667 -0.000000      2.000000
  0.000000  0.333333  0.000000      2.000000
  0.166667  0.333333  0.000000      2.000000
  0.333333  0.333333  0.000000      2.000000
  0.500000  0.333333  0.000000      2.000000
 -0.333333  0.333333  0.000000      2.000000
 -0.166667  0.333333 -0.000000      2.000000
  0.000000  0.500000  0.000000      1.000000
  0.166667  0.500000  0.000000      2.000000
  0.333333  0.500000  0.000000      2.000000
  0.500000  0.500000  0.000000      1.000000
  0.000000  0.000000  0.166667      2.000000
  0.166667  0.000000  0.166667      2.000000
  0.333333  0.000000  0.166667      2.000000
  0.500000  0.000000  0.166667      2.000000
 -0.333333 -0.000000  0.166667      2.000000
 -0.166667 -0.000000  0.166667      2.000000
  0.000000  0.166667  0.166667      2.000000
  0.166667  0.166667  0.166667      2.000000
  0.333333  0.166667  0.166667      2.000000
  0.500000  0.166667  0.166667      2.000000
 -0.333333  0.166667  0.166667      2.000000
 -0.166667  0.166667  0.166667      2.000000
  0.000000  0.333333  0.166667      2.000000
  0.166667  0.333333  0.166667      2.000000
  0.333333  0.333333  0.166667      2.000000
  0.500000  0.333333  0.166667      2.000000
 -0.333333  0.333333  0.166667      2.000000
 -0.166667  0.333333  0.166667      2.000000
  0.000000  0.500000  0.166667      2.000000
  0.166667  0.500000  0.166667      2.000000
  0.333333  0.500000  0.166667      2.000000
  0.500000  0.500000  0.166667      2.000000
 -0.333333  0.500000  0.166667      2.000000
 -0.166667  0.500000  0.166667      2.000000
  0.000000 -0.333333  0.166667      2.000000
  0.166667 -0.333333  0.166667      2.000000
  0.333333 -0.333333  0.166667      2.000000
  0.500000 -0.333333  0.166667      2.000000
 -0.333333 -0.333333  0.166667      2.000000
 -0.166667 -0.333333  0.166667      2.000000
  0.000000 -0.166667  0.166667      2.000000
  0.166667 -0.166667  0.166667      2.000000
  0.333333 -0.166667  0.166667      2.000000
  0.500000 -0.166667  0.166667      2.000000
 -0.333333 -0.166667  0.166667      2.000000
 -0.166667 -0.166667  0.166667      2.000000
  0.000000  0.000000  0.333333      2.000000
  0.166667  0.000000  0.333333      2.000000
  0.333333  0.000000  0.333333      2.000000
  0.500000  0.000000  0.333333      2.000000
[...]
  0.166667  0.166667  0.500000      2.000000
  0.333333  0.166667  0.500000      2.000000
  0.500000  0.166667  0.500000      2.000000
 -0.333333  0.166667  0.500000      2.000000
 -0.166667  0.166667  0.500000      2.000000
  0.000000  0.333333  0.500000      2.000000
  0.166667  0.333333  0.500000      2.000000
  0.333333  0.333333  0.500000      2.000000
  0.500000  0.333333  0.500000      2.000000
 -0.333333  0.333333  0.500000      2.000000
 -0.166667  0.333333  0.500000      2.000000
  0.000000  0.500000  0.500000      1.000000
  0.166667  0.500000  0.500000      2.000000
  0.333333  0.500000  0.500000      2.000000
  0.500000  0.500000  0.500000      1.000000

 Following cartesian coordinates:
            Coordinates               Weight
  0.000000  0.000000  0.000000      1.000000
  0.026497 -0.000000  0.000167      2.000000
  0.052993 -0.000001  0.000334      2.000000
  0.079490 -0.000001  0.000501      1.000000
  0.000000  0.026565  0.000001      2.000000
  0.026497  0.026565  0.000168      2.000000
  0.052993  0.026564  0.000334      2.000000
  0.079490  0.026564  0.000501      2.000000
 -0.052993  0.026566 -0.000333      2.000000
 -0.026497  0.026565 -0.000166      2.000000
  0.000000  0.053130  0.000001      2.000000
  0.026497  0.053130  0.000168      2.000000
  0.052993  0.053130  0.000335      2.000000
  0.079490  0.053129  0.000502      2.000000
 -0.052993  0.053131 -0.000333      2.000000
 -0.026497  0.053131 -0.000166      2.000000
  0.000000  0.079695  0.000002      1.000000
  0.026497  0.079695  0.000169      2.000000
  0.052993  0.079695  0.000336      2.000000
  0.079490  0.079694  0.000503      1.000000
  0.000000  0.000000  0.026468      2.000000
  0.026497 -0.000000  0.026635      2.000000
  0.052993 -0.000001  0.026802      2.000000
  0.079490 -0.000001  0.026969      2.000000
 -0.052993  0.000001  0.026134      2.000000
 -0.026497  0.000000  0.026301      2.000000
  0.000000  0.026565  0.026469      2.000000
  0.026497  0.026565  0.026636      2.000000
  0.052993  0.026564  0.026802      2.000000
  0.079490  0.026564  0.026969      2.000000
 -0.052993  0.026566  0.026135      2.000000
 -0.026497  0.026565  0.026302      2.000000
  0.000000  0.053130  0.026469      2.000000
  0.026497  0.053130  0.026636      2.000000
  0.052993  0.053130  0.026803      2.000000
  0.079490  0.053129  0.026970      2.000000
 -0.052993  0.053131  0.026135      2.000000
 -0.026497  0.053131  0.026302      2.000000
  0.000000  0.079695  0.026470      2.000000
  0.026497  0.079695  0.026637      2.000000
  0.052993  0.079695  0.026804      2.000000
  0.079490  0.079694  0.026971      2.000000
 -0.052993  0.079696  0.026136      2.000000
 -0.026497  0.079696  0.026303      2.000000
  0.000000 -0.053130  0.026467      2.000000
  0.026497 -0.053131  0.026634      2.000000
  0.052993 -0.053131  0.026801      2.000000
  0.079490 -0.053131  0.026967      2.000000
 -0.052993 -0.053130  0.026133      2.000000
 -0.026497 -0.053130  0.026300      2.000000
  0.000000 -0.026565  0.026467      2.000000
  0.026497 -0.026565  0.026634      2.000000
  0.052993 -0.026566  0.026801      2.000000
  0.079490 -0.026566  0.026968      2.000000
 -0.052993 -0.026564  0.026134      2.000000
 -0.026497 -0.026565  0.026300      2.000000
  0.000000  0.000000  0.052936      2.000000
  0.026497 -0.000000  0.053103      2.000000
  0.052993 -0.000001  0.053270      2.000000
  0.079490 -0.000001  0.053437      2.000000
[...]
  0.026497  0.026565  0.079572      2.000000
  0.052993  0.026564  0.079738      2.000000
  0.079490  0.026564  0.079905      2.000000
 -0.052993  0.026566  0.079071      2.000000
 -0.026497  0.026565  0.079238      2.000000
  0.000000  0.053130  0.079405      2.000000
  0.026497  0.053130  0.079572      2.000000
  0.052993  0.053130  0.079739      2.000000
[...]
 k-point 32 :  -0.1667 0.1667 0.1667  plane waves:    6331
 k-point 33 :   0.0000 0.3333 0.1667  plane waves:    6315
 k-point 34 :   0.1667 0.3333 0.1667  plane waves:    6311
 k-point 35 :   0.3333 0.3333 0.1667  plane waves:    6304
 k-point 36 :   0.5000 0.3333 0.1667  plane waves:    6304
 k-point 37 :  -0.3333 0.3333 0.1667  plane waves:    6307
 k-point 38 :  -0.1667 0.3333 0.1667  plane waves:    6311
 k-point 39 :   0.0000 0.5000 0.1667  plane waves:    6308
 k-point 40 :   0.1667 0.5000 0.1667  plane waves:    6305
 k-point 41 :   0.3333 0.5000 0.1667  plane waves:    6316
 k-point 42 :   0.5000 0.5000 0.1667  plane waves:    6300
 k-point 43 :  -0.3333 0.5000 0.1667  plane waves:    6297
 k-point 44 :  -0.1667 0.5000 0.1667  plane waves:    6306
 k-point 45 :   0.0000-0.3333 0.1667  plane waves:    6315
 k-point 46 :   0.1667-0.3333 0.1667  plane waves:    6311
 k-point 47 :   0.3333-0.3333 0.1667  plane waves:    6304
 k-point 48 :   0.5000-0.3333 0.1667  plane waves:    6304
 k-point 49 :  -0.3333-0.3333 0.1667  plane waves:    6306
 k-point 50 :  -0.1667-0.3333 0.1667  plane waves:    6311
 k-point 51 :   0.0000-0.1667 0.1667  plane waves:    6314
 k-point 52 :   0.1667-0.1667 0.1667  plane waves:    6321
 k-point 53 :   0.3333-0.1667 0.1667  plane waves:    6318
 k-point 54 :   0.5000-0.1667 0.1667  plane waves:    6300
 k-point 55 :  -0.3333-0.1667 0.1667  plane waves:    6317
 k-point 56 :  -0.1667-0.1667 0.1667  plane waves:    6331
 k-point 57 :   0.0000 0.0000 0.3333  plane waves:    6323
 k-point 58 :   0.1667 0.0000 0.3333  plane waves:    6319
 k-point 59 :   0.3333 0.0000 0.3333  plane waves:    6300
 k-point 60 :   0.5000 0.0000 0.3333  plane waves:    6301
[...]
 k-point 85 :  -0.3333-0.3333 0.3333  plane waves:    6297
 k-point 86 :  -0.1667-0.3333 0.3333  plane waves:    6299
 k-point 87 :   0.0000-0.1667 0.3333  plane waves:    6313
 k-point 88 :   0.1667-0.1667 0.3333  plane waves:    6320
 k-point 89 :   0.3333-0.1667 0.3333  plane waves:    6309
 k-point 90 :   0.5000-0.1667 0.3333  plane waves:    6307
 k-point 91 :  -0.3333-0.1667 0.3333  plane waves:    6303
 k-point 92 :  -0.1667-0.1667 0.3333  plane waves:    6321
 k-point 93 :   0.0000 0.0000 0.5000  plane waves:    6334
 k-point 94 :   0.1667 0.0000 0.5000  plane waves:    6312
 k-point 95 :   0.3333 0.0000 0.5000  plane waves:    6298
 k-point 96 :   0.5000 0.0000 0.5000  plane waves:    6272
 k-point 97 :   0.0000 0.1667 0.5000  plane waves:    6310
 k-point 98 :   0.1667 0.1667 0.5000  plane waves:    6306
 k-point 99 :   0.3333 0.1667 0.5000  plane waves:    6302
 k-point ** :   0.5000 0.1667 0.5000  plane waves:    6304
 k-point ** :  -0.3333 0.1667 0.5000  plane waves:    6302
 k-point ** :  -0.1667 0.1667 0.5000  plane waves:    6305
 k-point ** :   0.0000 0.3333 0.5000  plane waves:    6298
 k-point ** :   0.1667 0.3333 0.5000  plane waves:    6304
 k-point ** :   0.3333 0.3333 0.5000  plane waves:    6291
 k-point ** :   0.5000 0.3333 0.5000  plane waves:    6270
 k-point ** :  -0.3333 0.3333 0.5000  plane waves:    6293
 k-point ** :  -0.1667 0.3333 0.5000  plane waves:    6304
 k-point ** :   0.0000 0.5000 0.5000  plane waves:    6276
 k-point ** :   0.1667 0.5000 0.5000  plane waves:    6300
 k-point ** :   0.3333 0.5000 0.5000  plane waves:    6282
 k-point ** :   0.5000 0.5000 0.5000  plane waves:    6272

 maximum and minimum number of plane-waves per node :      6358     6270

 maximum number of plane-waves:      6358
 maximum index in each direction:
   IXMAX=   11   IYMAX=   11   IZMAX=   11
   IXMIN=  -11   IYMIN=  -11   IZMIN=  -11

 NGX is ok and might be reduce to  46
 NGY is ok and might be reduce to  46
 NGZ is ok and might be reduce to  46

 serial   3D FFT for wavefunctions
 parallel 3D FFT for charge:
    minimum data exchange during FFTs selected (reduces bandwidth)

 Broyden mixing: mesh for mixing (old mesh)
   NGX = 23   NGY = 23   NGZ = 23
  (NGX  = 96   NGY  = 96   NGZ  = 96)
  gives a total of  12167 points

 initial charge density was supplied:
 charge density of overlapping atoms calculated
 number of electron      50.0000000 magnetization
 keeping initial charge density in first step

 Maximum index for augmentation-charges         3139 (set IRDMAX)

 First call to EWALD:  gamma=   0.282
 Maximum number of real-space cells 3x 3x 3
 Maximum number of reciprocal cells 3x 3x 3

 FEWALD executed in parallel

----------------------------------------- Iteration    1(   1)  ---------------------------------------

 eigenvalue-minimisations  :  7168
 total energy-change (2. order) : 0.3609041E+03  (-0.1998855E+04)
 number of electron      50.0000000 magnetization
 augmentation part       50.0000000 magnetization

 Free energy of the ion-electron system (eV)
  alpha Z        PSCENC =        42.82368006
  Ewald energy   TEWEN  =     -1941.32201603
  -Hartree energ DENC   =     -1012.62416075
  -exchange      EXHF   =         0.00000000
  -V(xc)+E(xc)   XCENC  =        47.90485479
  PAW double counting   =      1802.06435323    -1715.25479705
  entropy T*S    EENTRO =        -0.00010547
  eigenvalues    EBANDS =        33.34593047
  atomic energy  EATOM  =      3103.96639798
  Solvation  Ediel_sol  =         0.00000000
  free energy    TOTEN  =       360.90413723 eV

  energy without entropy =      360.90424270  energy(sigma->0) =      360.90418997

[...]

 eigenvalue-minimisations  :  8800
 total energy-change (2. order) :-0.3743398E+03  (-0.3591443E+03)
 number of electron      50.0000000 magnetization
 augmentation part       50.0000000 magnetization

[...]

 Broyden mixing:
  rms(total) = 0.10090E+01    rms(broyden)= 0.10087E+01
  rms(prec ) = 0.17739E+01
  weight for this iteration     100.00

[...]

 eigenvalues of (default mixing * dielectric matrix)
  average eigenvalue GAMMA=   1.3859
  1.3859

[...]

 eigenvalue-minimisations  :  8816
 total energy-change (2. order) :-0.1014822E-05  (-0.9001802E-06)
 number of electron      49.9999995 magnetization
 augmentation part        0.9390557 magnetization

 Broyden mixing:
  rms(total) = 0.53408E-03    rms(broyden)= 0.53391E-03
  rms(prec ) = 0.90500E-03
  weight for this iteration     100.00

 eigenvalues of (default mixing * dielectric matrix)
  average eigenvalue GAMMA=   1.5602
  2.9255  2.4380  2.0658  1.3586  1.0681  1.0681  0.9490  1.0843  1.0843

[...]

----------------------------------------- Iteration    1(  15)  ---------------------------------------

 eigenvalue-minimisations  :  7976
 total energy-change (2. order) : 0.7205117E-06  (-0.1955692E-06)
 number of electron      49.9999995 magnetization
 augmentation part        0.9390557 magnetization

 Free energy of the ion-electron system (eV)
  alpha Z        PSCENC =        42.82368006
  Ewald energy   TEWEN  =     -1941.32201603
  -Hartree energ DENC   =     -1049.80904766
  -exchange      EXHF   =         0.00000000
  -V(xc)+E(xc)   XCENC  =        51.78900638
  PAW double counting   =      1935.71890237    -1849.22024639
  entropy T*S    EENTRO =        -0.00000000
  eigenvalues    EBANDS =      -348.78044000
  atomic energy  EATOM  =      3103.96639798
  Solvation  Ediel_sol  =         0.00000000
  free energy    TOTEN  =       -54.83376328 eV

  energy without entropy =      -54.83376328  energy(sigma->0) =      -54.83376328

 the core state eigenenergies are
   1-  1s   -260.9732
   2-  1s   -373.5276
   3-
   4-
   5-
   6-
   7-
   8-
   9-  1s -87449.3112  2s -15650.4018  2p -13443.9476  3s  -3754.4377  3p  -3120.7525
       3d  -2472.9782  4s   -844.4758  4p   -636.3992  4d   -395.0820  5s   -137.3999
       4f   -127.4716  5p    -79.3279
  10-  1s -32774.8528  2s  -5064.1980  2p  -4551.7757  3s  -1016.2728  3p   -849.5644
       3d   -598.2880  4s   -172.1891  4p   -119.6947  4d    -42.5099
  11-  1s -32774.7879  2s  -5064.1333  2p  -4551.7109  3s  -1016.2083  3p   -849.4999
       3d   -598.2234  4s   -172.1249  4p   -119.6306  4d    -42.4458
  12-  1s -32774.5290  2s  -5063.8709  2p  -4551.4491  3s  -1015.9406  3p   -849.2323
       3d   -597.9563  4s   -171.8484  4p   -119.3531  4d    -42.1661

 E-fermi :   1.4400     XC(G=0):  -8.0146     alpha+bet : -7.2670

 k-point     1 :       0.0000    0.0000    0.0000
  band No.  band energies     occupation
      1     -18.1539      2.00000
      2     -15.1985      2.00000
      3     -15.1751      2.00000
      4     -15.1303      2.00000
      5     -15.1129      2.00000
      6     -15.1087      2.00000
      7     -11.2618      2.00000
      8     -10.9562      2.00000
      9     -10.2526      2.00000
     10      -9.9755      2.00000
     11      -7.8293      2.00000
     12      -7.6661      2.00000
     13      -5.8661      2.00000
     14      -5.4798      2.00000
     15      -3.5372      2.00000
     16      -3.5216      2.00000
     17      -2.2363      2.00000
     18      -2.2358      2.00000
     19      -2.0834      2.00000
     20      -0.1090      2.00000
     21      -0.0750      2.00000
     22       0.0030      2.00000
     23       0.1319      2.00000
     24       0.4019      2.00000
     25       0.4132      2.00000
     26       4.7396      0.00000
     27       5.7855      0.00000
     28       5.9234      0.00000
     29       6.1012      0.00000
     30       6.2326      0.00000
     31       6.3490      0.00000
     32       7.0392      0.00000

[...]

 k-point   112 :       0.5000    0.5000    0.5000
  band No.  band energies     occupation
      1     -18.1506      2.00000
      2     -15.1774      2.00000
      3     -15.1552      2.00000
      4     -15.1316      2.00000
      5     -15.1144      2.00000
      6     -15.1101      2.00000
      7     -11.2568      2.00000
      8     -10.5662      2.00000
      9     -10.4919      2.00000
     10     -10.1518      2.00000
     11      -7.7515      2.00000
     12      -7.6342      2.00000
     13      -7.1997      2.00000
     14      -5.8289      2.00000
     15      -3.5369      2.00000
     16      -3.5230      2.00000
     17      -1.1539      2.00000
     18      -0.7504      2.00000
     19      -0.7101      2.00000
     20      -0.0448      2.00000
     21       0.0138      2.00000
     22       0.3382      2.00000
     23       0.7485      2.00000
     24       0.7521      2.00000
     25       1.3572      2.00000
     26       2.7985      0.00000
     27       2.8054      0.00000
     28       3.0266      0.00000
     29       5.4167      0.00000
     30       6.9514      0.00000
     31       7.3505      0.00000
     32       7.6341      0.00000

 soft charge-density along one line, spin component           1
         0         1         2         3         4         5         6         7         8         9
 total charge-density along one line

------------------------ aborting loop because EDIFF is reached ----------------------------------------

 total charge

# of ion     s       p       d       tot
  1        0.832   1.782   0.000   2.614
  2        1.212   2.767   0.000   3.979
  3        0.619   0.046   0.000   0.665
  4        0.618   0.046   0.000   0.665
  5        0.618   0.046   0.000   0.665
  6        0.587   0.079   0.000   0.666
  7        0.587   0.079   0.000   0.666
  8        0.583   0.079   0.000   0.662
  9        1.477   0.536   9.836  11.849
 10        1.512   2.792   0.009   4.313
 11        1.512   2.793   0.009   4.314
 12        1.513   2.781   0.008   4.302
tot       11.670  13.827   9.862  35.360

  FORCE on cell =-STRESS in cart. coord.  units (eV):
  Direction    XX          YY          ZZ          XY          YZ          ZX
  Alpha Z    42.82368    42.82368    42.82368
  Ewald    -631.85511  -642.25523  -667.21442    -0.07437    -0.09326    21.50540
  Hartree   353.49938   355.88372   340.41693    -0.04945    -0.05746    12.74306
  E(xc)    -197.10643  -197.11382  -197.10899     0.00002    -0.00002    -0.00606
  Local    -625.84110  -614.48434  -575.38123     0.12579     0.14503   -33.84277
  n-local   462.12619   459.13440   459.04469    -0.00168     0.00003     0.35309
  augment    11.57318    11.62150    11.51547    -0.00011     0.00006     0.01722
  Kinetic   583.16772   583.15979   584.93499     0.00097     0.00427    -0.84363
  Fock        0.00000     0.00000     0.00000     0.00000     0.00000     0.00000
  Total      -1.61249    -1.23030    -0.96889     0.00118    -0.00135    -0.07370
  in kB     -10.39643    -7.93225    -6.24684     0.00759    -0.00871    -0.47516

 VOLUME and BASIS-vectors are now :
  energy-cutoff  :      500.00
  volume of cell :      248.50
      direct lattice vectors                 reciprocal lattice vectors
     6.290120125  0.000000000  0.000000000     0.158979476 -0.000001969  0.001001495
     0.000077694  6.273890018  0.000000000     0.000000000  0.159390744  0.000003893
    -0.039667571 -0.000153793  6.296915042     0.000000000  0.000000000  0.158807923

  length of vectors
     6.290120125  6.273890018  6.297039986     0.158982630  0.159390744  0.158807923

 FORCES acting on ions
    electron-ion (+dipol)            ewald-force                    non-local-force                 convergence-correction
   0.889E+02 -.818E-01 0.171E+02   -.969E+02 0.863E-01 -.179E+02   0.826E+01 -.369E-02 0.927E+00   0.119E-02 -.822E-05 0.165E-03
   -.424E+02 -.764E-02 0.333E+01   0.412E+02 0.321E-02 -.333E+01   0.827E+00 0.180E-02 -.287E-01   -.157E-03 -.140E-04 -.165E-03
   0.171E+02 0.538E-01 0.495E+02   -.184E+02 -.616E-01 -.550E+02   0.133E+01 0.769E-02 0.541E+01   0.360E-04 -.286E-06 0.454E-03
   0.252E+02 -.389E+02 -.176E+02   -.275E+02 0.435E+02 0.200E+02   0.220E+01 -.453E+01 -.238E+01   0.736E-04 -.400E-03 -.206E-03
   0.253E+02 0.388E+02 -.177E+02   -.275E+02 -.434E+02 0.202E+02   0.221E+01 0.451E+01 -.239E+01   0.754E-04 0.399E-03 -.208E-03
   -.270E+02 -.490E+02 0.270E+02   0.300E+02 0.546E+02 -.298E+02   -.291E+01 -.544E+01 0.271E+01   -.359E-03 -.836E-03 0.380E-03
   -.269E+02 0.491E+02 0.269E+02   0.299E+02 -.546E+02 -.296E+02   -.290E+01 0.545E+01 0.269E+01   -.359E-03 0.837E-03 0.378E-03
   -.144E+02 -.750E-01 -.583E+02   0.162E+02 0.820E-01 0.648E+02   -.177E+01 -.670E-02 -.636E+01   -.224E-03 -.210E-05 -.994E-03
   -.315E+02 0.633E-01 -.104E+02   0.304E+02 -.626E-01 0.101E+02   0.104E+01 -.747E-03 0.275E+00   -.523E-03 0.588E-05 -.407E-03
   -.110E+02 0.718E-01 0.414E+01   0.110E+02 -.738E-01 -.408E+01   0.404E-01 0.213E-02 -.636E-01   0.672E-04 0.358E-05 0.210E-03
   -.129E+02 -.219E-01 -.174E+02   0.128E+02 0.215E-01 0.179E+02   0.313E-01 0.383E-03 -.488E+00   0.409E-04 -.210E-05 0.120E-05
   0.163E+01 0.305E-01 -.696E+01   -.112E+01 -.291E-01 0.679E+01   -.532E+00 -.135E-02 0.137E+00   0.177E-03 0.138E-05 -.207E-03
   -.782E+01 0.184E-02 -.450E+00   -.124E-13 0.122E-14 -.444E-14   0.782E+01 -.184E-02 0.450E+00   0.374E-04 -.161E-04 -.598E-03

 POSITION                                       TOTAL-FORCE (eV/Angst)
      5.63915      6.27350      6.27384         0.314649      0.000799      0.034447
      0.85821      6.27280      0.15665        -0.331580     -0.002644     -0.026495
      5.40518      6.27196      5.19958        -0.019116     -0.000072     -0.051168
      5.26698      0.90190      0.45292        -0.029404      0.044487      0.020023
      5.26573      5.37368      0.45579        -0.029610     -0.045022      0.020444
      1.26776      0.84227      6.03329         0.057866      0.105049     -0.041241
      1.26657      5.42716      6.03557         0.056954     -0.102953     -0.039964
      1.13753     -0.00001      1.16715         0.030638      0.000234      0.117842
      2.97634      3.13707      2.99511         0.001902      0.000004      0.001362
      2.64610      3.13606      6.12444        -0.018277      0.000070      0.000544
      2.72152      0.00020      3.18965        -0.016506     -0.000010     -0.006367
      6.03902      3.13830      2.81942        -0.017517      0.000058     -0.029425
    total drift:                                0.000862     -0.000011     -0.000273

  FREE ENERGIE OF THE ION-ELECTRON SYSTEM (eV)
  free  energy   TOTEN  =       -54.83376328 eV

  energy  without entropy=      -54.83376328  energy(sigma->0) =      -54.83376328

 writing wavefunctions

 total charge

# of ion     s       p       d       tot
  1        0.832   1.782   0.000   2.614
  2        1.212   2.767   0.000   3.979
  3        0.619   0.046   0.000   0.665
  4        0.618   0.046   0.000   0.665
  5        0.618   0.046   0.000   0.665
  6        0.587   0.079   0.000   0.666
  7        0.587   0.079   0.000   0.666
  8        0.583   0.079   0.000   0.662
  9        1.477   0.536   9.836  11.849
 10        1.512   2.792   0.009   4.313
 11        1.512   2.793   0.009   4.314
 12        1.513   2.781   0.008   4.302
tot       11.670  13.827   9.862  35.360