 vasp.5.3.5 31Mar14 (build Apr 15 2015 10:45:18) complex

 executed on             LinuxIFC date 2016.01.30  00:45:05

 INCAR:
 POTCAR:   PAW Cd 03Mar1998
 POTCAR:   PAW Te 03Oct2001

 POTCAR:   PAW Cd 03Mar1998
   VRHFIN =Cd : s2 d10

   TITEL  = PAW Cd 03Mar1998
   POMASS =  112.411; ZVAL   =   12.000    mass and valenz
   ENMAX  =  274.265; ENMIN  =  205.699 eV
   QCUT   =   -4.490; QGAM   =    8.980    optimization parameters

   Description
     l     E      TYP  RCUT    TYP  RCUT
     2   .000     23  2.300
     2   .000     23  2.300
     0   .000     23  2.300
     0   .000     23  2.300
     1  -.200     23  2.300
     1   .000     23  2.300
     3   .000      7   .000

 POTCAR:   PAW Te 03Oct2001
   VRHFIN =Te: s2p4

   TITEL  = PAW Te 03Oct2001
   POMASS =  127.600; ZVAL   =    6.000    mass and valenz
   ENMAX  =  175.144; ENMIN  =  131.358 eV
   QCUT   =   -3.588; QGAM   =    7.176    optimization parameters

   Description
     l     E      TYP  RCUT    TYP  RCUT
     0   .000     23  2.300
     0   .000     23  2.300
     1   .000     23  2.300
     1   .000     23  2.300
     2   .000     23  2.300
     3  -.100     23  2.300

 PAW Cd 03Mar1998                       :
 PAW Te 03Oct2001                       :

 POSCAR: CdTe (ICSD, 295K, Rabadanov 2001)
  positions in direct lattice
 exchange correlation table for  LEXCH =        2
   RHO(1)=    0.500       N(1)  =     2000
   RHO(2)=  100.500       N(2)  =     4000

 ion  position               nearest neighbor table
   1  0.000  0.000  0.000-   2 2.81   2 2.81   2 2.81   2 2.81
   2  0.250  0.250  0.250-   1 2.81   1 2.81   1 2.81   1 2.81

  LATTYP: Found a face centered cubic cell.
 ALAT       =     6.4827000000

  Lattice vectors:

 A1 = (   3.2413500000,   3.2413500000,   0.0000000000)
 A2 = (   3.2413500000,   0.0000000000,  -3.2413500000)
 A3 = (   0.0000000000,   3.2413500000,  -3.2413500000)

Analysis of symmetry for initial positions (statically):
 Subroutine PRICEL returns:
 Original cell was already a primitive cell.

 Routine SETGRP: Setting up the symmetry group for a
 face centered cubic supercell.

 Subroutine GETGRP returns: Found 24 space group operations
 (whereof 24 operations were pure point group operations)
 out of a pool of 48 trial point group operations.

The static configuration has the point symmetry T_d .

Analysis of symmetry for dynamics (positions and initial velocities):
 Subroutine PRICEL returns:
 Original cell was already a primitive cell.

 Routine SETGRP: Setting up the symmetry group for a
 face centered cubic supercell.

 Subroutine GETGRP returns: Found 24 space group operations
 (whereof 24 operations were pure point group operations)
 out of a pool of 48 trial point group operations.

The dynamic configuration has the point symmetry T_d .

 KPOINTS: Automatic mesh

Automatic generation of k-mesh.
Space group operators:
 irot       det(A)        alpha          n_x          n_y          n_z        tau_x        tau_y        tau_z
    1     1.000000     0.000000     1.000000     0.000000     0.000000     0.000000     0.000000     0.000000
    2     1.000000   120.000000    -0.577350    -0.577350     0.577350     0.000000     0.000000     0.000000
    3     1.000000   120.000000     0.577350     0.577350    -0.577350     0.000000     0.000000     0.000000
    4    -1.000000    90.000000    -1.000000     0.000000     0.000000     0.000000     0.000000     0.000000
    5    -1.000000   180.000000     0.707107     0.707107     0.000000     0.000000     0.000000     0.000000
    6    -1.000000    90.000000     0.000000     1.000000     0.000000     0.000000     0.000000     0.000000
    7     1.000000   180.000000     1.000000     0.000000     0.000000     0.000000     0.000000     0.000000
    8     1.000000   120.000000     0.577350     0.577350     0.577350     0.000000     0.000000     0.000000
    9     1.000000   120.000000    -0.577350     0.577350     0.577350     0.000000     0.000000     0.000000
   10    -1.000000    90.000000     1.000000     0.000000     0.000000     0.000000     0.000000     0.000000
   11    -1.000000    90.000000     0.000000     0.000000     1.000000     0.000000     0.000000     0.000000
   12    -1.000000   180.000000     0.707107     0.000000    -0.707107     0.000000     0.000000     0.000000
   13     1.000000   120.000000     0.577350    -0.577350    -0.577350     0.000000     0.000000     0.000000
   14     1.000000   120.000000     0.577350    -0.577350     0.577350     0.000000     0.000000     0.000000
   15     1.000000   180.000000     0.000000     0.000000     1.000000     0.000000     0.000000     0.000000
   16    -1.000000    90.000000     0.000000    -1.000000     0.000000     0.000000     0.000000     0.000000
   17    -1.000000   180.000000     0.000000    -0.707107     0.707107     0.000000     0.000000     0.000000
   18    -1.000000    90.000000     0.000000     0.000000    -1.000000     0.000000     0.000000     0.000000
   19     1.000000   120.000000    -0.577350    -0.577350    -0.577350     0.000000     0.000000     0.000000
   20     1.000000   180.000000     0.000000     1.000000     0.000000     0.000000     0.000000     0.000000
   21     1.000000   120.000000    -0.577350     0.577350    -0.577350     0.000000     0.000000     0.000000
   22    -1.000000   180.000000     0.707107    -0.707107     0.000000     0.000000     0.000000     0.000000
   23    -1.000000   180.000000     0.000000     0.707107     0.707107     0.000000     0.000000     0.000000
   24    -1.000000   180.000000     0.707107     0.000000     0.707107     0.000000     0.000000     0.000000

 Subroutine IBZKPT returns following result:

 Found     16 irreducible k-points:

 Following reciprocal coordinates:
            Coordinates               Weight
  0.000000  0.000000  0.000000      1.000000
  0.166667  0.000000  0.000000      8.000000
  0.333333  0.000000  0.000000      8.000000
  0.500000  0.000000  0.000000      4.000000
  0.166667  0.166667  0.000000      6.000000
  0.333333  0.166667  0.000000     24.000000
  0.500000  0.166667  0.000000     24.000000
 -0.333333  0.166667  0.000000     24.000000
 -0.166667  0.166667  0.000000     12.000000
  0.333333  0.333333  0.000000      6.000000
  0.500000  0.333333  0.000000     24.000000
 -0.333333  0.333333  0.000000     12.000000
  0.500000  0.500000  0.000000      3.000000
  0.500000  0.333333  0.166667     24.000000
 -0.333333  0.333333  0.166667     24.000000
 -0.333333  0.500000  0.166667     12.000000

 Following cartesian coordinates:
            Coordinates               Weight
  0.000000  0.000000  0.000000      1.000000
  0.166667  0.166667  0.166667      8.000000
  0.333333  0.333333  0.333333      8.000000
  0.500000  0.500000  0.500000      4.000000
  0.333333  0.000000  0.000000      6.000000
  0.500000  0.166667  0.166667     24.000000
  0.666667  0.333333  0.333333     24.000000
 -0.166667 -0.500000 -0.500000     24.000000
  0.000000 -0.333333 -0.333333     12.000000
  0.666667  0.000000  0.000000      6.000000
  0.833333  0.166667  0.166667     24.000000
  0.000000 -0.666667 -0.666667     12.000000
  1.000000  0.000000  0.000000      3.000000
  0.666667  0.333333  0.000000     24.000000
 -0.166667 -0.500000 -0.833333     24.000000
  0.000000 -0.666667 -1.000000     12.000000

 I would recommend the setting:
   dimension x,y,z NGX =    33 NGY =   33 NGZ =   33
 SYSTEM =  Name
 POSCAR =  CdTe (ICSD, 295K, Rabadanov 2001)

 Startparameter for this run:
   NWRITE =      2    write-flag & timer
   PREC   = accura    normal or accurate (medium, high low for compatibility)
   ISTART =      0    job   : 0-new  1-cont  2-samecut
   ICHARG =      2    charge: 1-file 2-atom 10-const
   ISPIN  =      1    spin polarized calculation?
   LNONCOLLINEAR =      F non collinear calculations
   LSORBIT =      F    spin-orbit coupling
   INIWAV =      1    electr: 0-lowe 1-rand  2-diag
   LASPH  =      F    aspherical Exc in radial PAW
   METAGGA=      F    non-selfconsistent MetaGGA calc.

 Electronic Relaxation 1
   ENCUT  =  500.0 eV  36.75 Ry    6.06 a.u.   8.36  8.36  8.36*2*pi/ulx,y,z
   ENINI  =  500.0     initial cutoff
   ENAUG  =  456.1 eV  augmentation charge cutoff
   NELM   =     60;   NELMIN=  2; NELMDL=  0     # of ELM steps
   EDIFF  = 0.1E-05   stopping-criterion for ELM
   LREAL  =      F    real-space projection
   NLSPLINE    = F    spline interpolate recip. space projectors
   LCOMPAT=      F    compatible to vasp.4.4
   GGA_COMPAT  = T    GGA compatible to vasp.4.4-vasp.4.6
   LMAXPAW     = -100 max onsite density
   LMAXMIX     =    2 max onsite mixed and CHGCAR
   VOSKOWN=      0    Vosko Wilk Nusair interpolation
   ROPT   =    0.00000   0.00000
 Ionic relaxation
   EDIFFG = -.5E-02   stopping-criterion for IOM
   NSW    =    100    number of steps for IOM
   NBLOCK =      1;   KBLOCK =    100    inner block; outer block
   IBRION =      2    ionic relax: 0-MD 1-quasi-New 2-CG
   NFREE  =      1    steps in history (QN), initial steepest desc. (CG)
   ISIF   =      3    stress and relaxation
   IWAVPR =     11    prediction:  0-non 1-charg 2-wave 3-comb
   ISYM   =      2    0-nonsym 1-usesym 2-fastsym
   LCORR  =      T    Harris-Foulkes like correction to forces

   POTIM  = 0.5000    time-step for ionic-motion
   TEIN   =    0.0    initial temperature
   TEBEG  =    0.0;   TEEND  =   0.0 temperature during run
   SMASS  =  -3.00    Nose mass-parameter (am)
   estimated Nose-frequenzy (Omega)   =  0.10E-29 period in steps =****** mass=  -0.480E-27a.u.
   SCALEE = 1.0000    scale energy and forces
   NPACO  =    256;   APACO  = 16.0  distance and # of slots for P.C.
   PSTRESS=    0.0 pullay stress

  Mass of Ions in am
   POMASS = 112.41127.60
  Ionic Valenz
   ZVAL   =  12.00  6.00
  Atomic Wigner-Seitz radii
  virtual crystal weights
   VCA    =   1.00  1.00
   NELECT =      18.0000    total number of electrons
   NUPDOWN=      -1.0000    fix difference up-down

 DOS related values:
   EMIN   =  10.00;   EMAX   =-10.00  energy-range for DOS
   EFERMI =   0.00
   ISMEAR =     0;   SIGMA  =   0.01  broadening in eV -4-tet -1-fermi 0-gaus

 Electronic relaxation 2 (details)
   IALGO  =     38    algorithm
   LDIAG  =      T    sub-space diagonalisation (order eigenvalues)
   LSUBROT=      F    optimize rotation matrix (better conditioning)
   TURBO    =      0    0=normal 1=particle mesh
   IRESTART =      0    0=no restart 2=restart with 2 vectors
   NREBOOT  =      0    no. of reboots
   NMIN     =      0    reboot dimension
   EREF     =   0.00    reference energy to select bands
   IMIX   =      4    mixing-type and parameters
     AMIX     =   0.40;   BMIX     =  1.00
     AMIX_MAG =   1.60;   BMIX_MAG =  1.00
     AMIN     =   0.01
     WC   =   100.;   INIMIX=   1;  MIXPRE=   1;  MAXMIX= -45

 Intra band minimization:
   WEIMIN = 0.0010     energy-eigenvalue tresh-hold
   EBREAK =  0.16E-07  absolut break condition
   DEPER  =   0.30     relativ break condition

   TIME   =   0.40     timestep for ELM

  volume/ion in A,a.u.               =      34.05       229.81
  Fermi-wavevector in a.u.,A,eV,Ry     =   1.050581  1.985311 15.017042  1.103721
[...]
 perform sub-space diagonalisation
    after iterative eigenvector-optimisation
 modified Broyden-mixing scheme, WC =      100.0
 initial mixing is a Kerker type mixing with AMIX =  0.4000 and BMIX =      1.0000
 Hartree-type preconditioning will be used
 using additional bands            7
 reciprocal scheme for non local part
 use partial core corrections
 calculate Harris-corrections to forces
   (improved forces if not selfconsistent)
 use of overlap-Matrix (Vanderbilt PP)
 Gauss-broadening in eV      SIGMA  =   0.01

  energy-cutoff  :      500.00
  volume of cell :       68.11
      direct lattice vectors                 reciprocal lattice vectors
     3.241350000  3.241350000  0.000000000     0.154256714  0.154256714  0.154256714
     3.241350000  0.000000000 -3.241350000     0.154256714 -0.154256714 -0.154256714
     0.000000000  3.241350000 -3.241350000    -0.154256714  0.154256714 -0.154256714

  length of vectors
     4.583961130  4.583961130  4.583961130     0.267180466  0.267180466  0.267180466

 k-points in units of 2pi/SCALE and weight: Automatic mesh
   0.00000000  0.00000000  0.00000000       0.005
   0.16666667  0.16666667  0.16666667       0.037
   0.33333333  0.33333333  0.33333333       0.037
   0.50000000  0.50000000  0.50000000       0.019
   0.33333333  0.00000000  0.00000000       0.028
   0.50000000  0.16666667  0.16666667       0.111
   0.66666667  0.33333333  0.33333333       0.111
  -0.16666667 -0.50000000 -0.50000000       0.111
   0.00000000 -0.33333333 -0.33333333       0.056
   0.66666667  0.00000000  0.00000000       0.028
   0.83333333  0.16666667  0.16666667       0.111
   0.00000000 -0.66666667 -0.66666667       0.056
   1.00000000  0.00000000  0.00000000       0.014
   0.66666667  0.33333333  0.00000000       0.111
  -0.16666667 -0.50000000 -0.83333333       0.111
   0.00000000 -0.66666667 -1.00000000       0.056

 k-points in reciprocal lattice and weights: Automatic mesh
   0.00000000  0.00000000  0.00000000       0.005
   0.16666667  0.00000000  0.00000000       0.037
   0.33333333  0.00000000  0.00000000       0.037
   0.50000000  0.00000000  0.00000000       0.019
   0.16666667  0.16666667  0.00000000       0.028
   0.33333333  0.16666667  0.00000000       0.111
   0.50000000  0.16666667  0.00000000       0.111
  -0.33333333  0.16666667  0.00000000       0.111
  -0.16666667  0.16666667  0.00000000       0.056
   0.33333333  0.33333333  0.00000000       0.028
   0.50000000  0.33333333  0.00000000       0.111
  -0.33333333  0.33333333  0.00000000       0.056
   0.50000000  0.50000000  0.00000000       0.014
   0.50000000  0.33333333  0.16666667       0.111
  -0.33333333  0.33333333  0.16666667       0.111
  -0.33333333  0.50000000  0.16666667       0.056

 position of ions in fractional coordinates (direct lattice)
   0.00000000  0.00000000  0.00000000
   0.25000000  0.25000000  0.25000000

 position of ions in cartesian coordinates  (Angst):
   0.00000000  0.00000000  0.00000000
   1.62067500  1.62067500 -1.62067500

 k-point  1 :   0.0000 0.0000 0.0000  plane waves:    1759
 k-point  2 :   0.1667 0.0000 0.0000  plane waves:    1747
 k-point  3 :   0.3333 0.0000 0.0000  plane waves:    1730
 k-point  4 :   0.5000 0.0000 0.0000  plane waves:    1718
 k-point  5 :   0.1667 0.1667 0.0000  plane waves:    1736
 k-point  6 :   0.3333 0.1667 0.0000  plane waves:    1729
 k-point  7 :   0.5000 0.1667 0.0000  plane waves:    1739
 k-point  8 :  -0.3333 0.1667 0.0000  plane waves:    1732
 k-point  9 :  -0.1667 0.1667 0.0000  plane waves:    1735
 k-point 10 :   0.3333 0.3333 0.0000  plane waves:    1728
 k-point 11 :   0.5000 0.3333 0.0000  plane waves:    1723
 k-point 12 :  -0.3333 0.3333 0.0000  plane waves:    1726
 k-point 13 :   0.5000 0.5000 0.0000  plane waves:    1724
 k-point 14 :   0.5000 0.3333 0.1667  plane waves:    1724
 k-point 15 :  -0.3333 0.3333 0.1667  plane waves:    1726
 k-point 16 :  -0.3333 0.5000 0.1667  plane waves:    1722

 maximum and minimum number of plane-waves per node :      1759     1718

 maximum number of plane-waves:      1759
 maximum index in each direction:
   IXMAX=    8   IYMAX=    8   IZMAX=    8
   IXMIN=   -8   IYMIN=   -8   IZMIN=   -8

 NGX is ok and might be reduce to  34
 NGY is ok and might be reduce to  34
 NGZ is ok and might be reduce to  34

 serial   3D FFT for wavefunctions
 parallel 3D FFT for charge:
    minimum data exchange during FFTs selected (reduces bandwidth)

 Broyden mixing: mesh for mixing (old mesh)
   NGX = 17   NGY = 17   NGZ = 17
  (NGX  = 72   NGY  = 72   NGZ  = 72)
  gives a total of   4913 points

 initial charge density was supplied:
 charge density of overlapping atoms calculated
 number of electron      18.0000000 magnetization
 keeping initial charge density in first step

 Maximum index for augmentation-charges         9730 (set IRDMAX)

 First call to EWALD:  gamma=   0.434
 Maximum number of real-space cells 3x 3x 3
 Maximum number of reciprocal cells 3x 3x 3

 FEWALD executed in parallel

----------------------------------------- Iteration    1(   1)  ---------------------------------------

 eigenvalue-minimisations  :   512
 total energy-change (2. order) : 0.1000215E+03  (-0.8016413E+03)
 number of electron      18.0000000 magnetization
 augmentation part       18.0000000 magnetization

 Free energy of the ion-electron system (eV)
  alpha Z        PSCENC =        48.00481358
  Ewald energy   TEWEN  =     -1044.83138452
  -Hartree energ DENC   =      -508.27640985
  -exchange      EXHF   =         0.00000000
  -V(xc)+E(xc)   XCENC  =       -21.47046472
  PAW double counting   =      1143.63574223    -1075.26891146
  entropy T*S    EENTRO =        -0.00010782
  eigenvalues    EBANDS =        36.84512358
  atomic energy  EATOM  =      1521.38312781
  free energy    TOTEN  =       100.02152882 eV

  energy without entropy =      100.02163664  energy(sigma->0) =      100.02158273

[...]

 eigenvalue-minimisations  :   640
 total energy-change (2. order) :-0.1027563E+03  (-0.9789660E+02)
 number of electron      18.0000000 magnetization
 augmentation part       18.0000000 magnetization

[...]

 Broyden mixing:
  rms(total) = 0.19236E+00    rms(broyden)= 0.19235E+00
  rms(prec ) = 0.65415E+00
  weight for this iteration     100.00

[...]

 eigenvalues of (default mixing * dielectric matrix)
  average eigenvalue GAMMA=   1.2977
  1.2977

[...]

 the core state eigenenergies are
   1-  1s -26363.8816  2s  -3914.0177  2p  -3517.1955  3s   -724.4050  3p   -593.6923
       3d   -387.7460  4s    -99.3799  4p    -60.4928
   2-  1s -31428.8638  2s  -4819.4458  2p  -4332.5201  3s   -952.9816  3p   -794.0671
       3d   -552.2183  4s   -155.9075  4p   -106.3930  4d    -33.4610

 E-fermi :   2.2277     XC(G=0):  -8.9430     alpha+bet : -7.4773

 k-point     1 :       0.0000    0.0000    0.0000
  band No.  band energies     occupation
      1      -9.0845      2.00000
      2      -6.1406      2.00000
      3      -6.1406      2.00000
      4      -6.1406      2.00000
      5      -5.8775      2.00000
      6      -5.8775      2.00000
      7       2.1509      2.00000
      8       2.1509      2.00000
      9       2.1509      2.00000
     10       2.6983      0.00000
     11       6.6500      0.00000
     12       6.6500      0.00000
     13       6.6500      0.00000
     14       9.3636      0.00000
     15      11.4833      0.00000
     16      11.4833      0.00000

[...]

 soft charge-density along one line, spin component           1
         0         1         2         3         4         5         6         7         8         9
 total charge-density along one line

------------------------ aborting loop because EDIFF is reached ----------------------------------------

 total charge

# of ion     s       p       d       tot
  1        0.483   0.324   9.522  10.328
  2        1.358   2.050   0.022   3.430
tot        1.840   2.373   9.544  13.758

  FORCE on cell =-STRESS in cart. coord.  units (eV):
  Direction    XX          YY          ZZ          XY          YZ          ZX
  Alpha Z    48.00481    48.00481    48.00481
  Ewald    -348.27726  -348.27726  -348.27726     0.00000     0.00000    -0.00000
  Hartree   166.97627   166.97627   166.97627     0.00000    -0.00000    -0.00000
  E(xc)     -85.67751   -85.67751   -85.67751    -0.00000     0.00000     0.00000
  Local     -20.80589   -20.80589   -20.80589     0.00001    -0.00001    -0.00001
  n-local    25.94119    31.48425    30.56472    -1.80526    -3.16169    -1.17505
  augment     5.64241     5.64241     5.64241    -0.00001     0.00001     0.00001
  Kinetic   201.77425   205.43486   205.65317    -1.64261    -3.14237    -1.24716
  Fock        0.00000     0.00000     0.00000     0.00000     0.00000     0.00000
  Total      -0.51969    -0.51969    -0.51969     0.00000    -0.00000     0.00000
  in kB     -12.22490   -12.22490   -12.22490     0.00000    -0.00000     0.00000

 VOLUME and BASIS-vectors are now :
  energy-cutoff  :      500.00
  volume of cell :       68.11
      direct lattice vectors                 reciprocal lattice vectors
     3.241350000  3.241350000  0.000000000     0.154256714  0.154256714  0.154256714
     3.241350000  0.000000000 -3.241350000     0.154256714 -0.154256714 -0.154256714
     0.000000000  3.241350000 -3.241350000    -0.154256714  0.154256714 -0.154256714

[...]

 FORCES acting on ions
    electron-ion (+dipol)            ewald-force                    non-local-force                 convergence-correction
   -.272E-08 -.294E-08 0.294E-08   -.153E-13 -.130E-13 0.167E-13   0.208E-16 0.694E-17 -.208E-16   -.762E-08 -.762E-08 0.762E-08
   0.190E-06 0.197E-06 -.197E-06   0.145E-13 0.128E-13 -.169E-13   0.153E-15 0.153E-15 -.125E-15   -.370E-09 -.370E-09 0.370E-09
   0.188E-06 0.194E-06 -.194E-06   -.840E-15 -.129E-15 -.231E-15   0.173E-15 0.160E-15 -.146E-15   -.800E-08 -.800E-08 0.800E-08

 POSITION                                       TOTAL-FORCE (eV/Angst)
      0.00000      0.00000      0.00000        -0.000000     -0.000000      0.000000
      1.62068      1.62068     -1.62068         0.000000      0.000000     -0.000000
    total drift:                                0.000000      0.000000     -0.000000

  FREE ENERGIE OF THE ION-ELECTRON SYSTEM (eV)
  free  energy   TOTEN  =        -6.01944172 eV

  energy  without entropy=       -6.01944172  energy(sigma->0) =       -6.01944172

[...]

 d Force = 0.0000000E+00[ 0.000E+00, 0.000E+00]  d Energy = 0.6510213E-02-0.651E-02
 d Force = 0.0000000E+00[ 0.000E+00, 0.000E+00]  d Ewald  = 0.1326382E+02-0.133E+02

 Steepest descent step on ions:
 trial-energy change:   -0.006510  1 .order   -0.006508   -0.019544    0.006527
  (g-gl).g = 0.195E-01      g.g   = 0.195E-01  gl.gl    = 0.000E+00
 g(Force)  = 0.360E-47   g(Stress)= 0.195E-01 ortho     = 0.000E+00
 gamma     =   0.00000
 trial     =   1.00000
 opt step  =   0.74965  (harmonic =   0.74965) maximal distance =0.00000000
 next E    =    -6.026767   (d E  =  -0.00733)

 FEWALD executed in parallel

[...]

 eigenvalue-minimisations  :   624
 total energy-change (2. order) : 0.1869441E-05  (-0.1543046E-05)
 number of electron      17.9999994 magnetization
 augmentation part        4.4899334 magnetization

 Broyden mixing:
  rms(total) = 0.14105E-03    rms(broyden)= 0.14094E-03
  rms(prec ) = 0.31533E-03
  weight for this iteration     100.00

 eigenvalues of (default mixing * dielectric matrix)
  average eigenvalue GAMMA=   1.7210
  2.5669  2.0449  1.8266  1.0833  1.0833

[...]

----------------------------------------- Iteration    3(   7)  ---------------------------------------

 eigenvalue-minimisations  :   288
 total energy-change (2. order) :-0.4199001E-07  (-0.4230922E-07)
 number of electron      17.9999994 magnetization
 augmentation part        4.4899334 magnetization

 Free energy of the ion-electron system (eV)
  alpha Z        PSCENC =        49.38399347
  Ewald energy   TEWEN  =     -1054.74307445
  -Hartree energ DENC   =      -495.46017486
  -exchange      EXHF   =         0.00000000
  -V(xc)+E(xc)   XCENC  =       -21.40792357
  PAW double counting   =      1155.58582192    -1087.08963503
  entropy T*S    EENTRO =        -0.00000000
  eigenvalues    EBANDS =       -73.67897079
  atomic energy  EATOM  =      1521.38312781
  free energy    TOTEN  =        -6.02683549 eV

  energy without entropy =       -6.02683549  energy(sigma->0) =       -6.02683549

 the core state eigenenergies are
   1-  1s -26363.6771  2s  -3913.8212  2p  -3516.9981  3s   -724.2103  3p   -593.4976
       3d   -387.5516  4s    -99.1886  4p    -60.3016
   2-  1s -31428.6149  2s  -4819.2021  2p  -4332.2756  3s   -952.7467  3p   -793.8321
       3d   -551.9824  4s   -155.6873  4p   -106.1746  4d    -33.2463

 E-fermi :   2.5322     XC(G=0):  -9.0649     alpha+bet : -7.6921

[...]

 k-point    16 :      -0.3333    0.5000    0.1667
  band No.  band energies     occupation
      1      -8.4229      2.00000
      2      -5.8381      2.00000
      3      -5.8345      2.00000
      4      -5.7484      2.00000
      5      -5.6816      2.00000
      6      -5.1095      2.00000
      7      -2.0110      2.00000
      8       0.0591      2.00000
      9       0.1413      2.00000
     10       6.0348      0.00000
     11       6.0712      0.00000
     12       9.0247      0.00000
     13       9.2924      0.00000
     14      12.0062      0.00000
     15      13.4954      0.00000
     16      13.7401      0.00000

 soft charge-density along one line, spin component           1
         0         1         2         3         4         5         6         7         8         9
 total charge-density along one line

------------------------ aborting loop because EDIFF is reached ----------------------------------------

[...]

  FORCE on cell =-STRESS in cart. coord.  units (eV):
  Direction    XX          YY          ZZ          XY          YZ          ZX
  Alpha Z    49.38399    49.38399    49.38399
  Ewald    -351.58116  -351.58116  -351.58116     0.00000    -0.00000     0.00000
  Hartree   165.15521   165.15521   165.15521     0.00000    -0.00000    -0.00000
  E(xc)     -85.82700   -85.82700   -85.82700    -0.00000     0.00000     0.00000
  Local     -17.38578   -17.38578   -17.38578     0.00001    -0.00001    -0.00001
  n-local    26.65442    32.09682    31.20650    -1.78810    -3.16066    -1.15981
  augment     5.68763     5.68763     5.68763    -0.00001     0.00001     0.00001
  Kinetic   202.15346   205.65536   205.94938    -1.62906    -3.15726    -1.24336
  Fock        0.00000     0.00000     0.00000     0.00000     0.00000     0.00000
  Total       0.00487     0.00487     0.00487     0.00000     0.00000    -0.00000
  in kB       0.11795     0.11795     0.11795     0.00000     0.00000    -0.00000

 VOLUME and BASIS-vectors are now :
  energy-cutoff  :      500.00
  volume of cell :       66.21
      direct lattice vectors                 reciprocal lattice vectors
     3.210890207  3.210890207  0.000000000     0.155720055  0.155720055  0.155720055
     3.210890207  0.000000000 -3.210890207     0.155720055 -0.155720055 -0.155720055
    -0.000000000  3.210890207 -3.210890207    -0.155720055  0.155720055 -0.155720055

  length of vectors
     4.540884477  4.540884477  4.540884477     0.269715047  0.269715047  0.269715047

 FORCES acting on ions
    electron-ion (+dipol)            ewald-force                    non-local-force                 convergence-correction
   -.212E-08 -.251E-08 0.252E-08   0.582E-14 -.462E-15 -.227E-14   0.676E-16 0.798E-16 -.659E-16   0.106E-08 0.106E-08 -.106E-08
   0.111E-06 0.958E-07 -.958E-07   -.545E-14 0.124E-14 0.203E-14   -.867E-16 -.555E-16 0.111E-15   -.136E-09 -.136E-09 0.136E-09
   0.109E-06 0.933E-07 -.933E-07   0.369E-15 0.777E-15 -.245E-15   -.190E-16 0.243E-16 0.451E-16   0.921E-09 0.921E-09 -.921E-09

 POSITION                                       TOTAL-FORCE (eV/Angst)
     -0.00000     -0.00000      0.00000         0.000000      0.000000     -0.000000
      1.60545      1.60545     -1.60545        -0.000000     -0.000000      0.000000
    total drift:                                0.000000      0.000000     -0.000000

  FREE ENERGIE OF THE ION-ELECTRON SYSTEM (eV)
  free  energy   TOTEN  =        -6.02683549 eV

  energy  without entropy=       -6.02683549  energy(sigma->0) =       -6.02683549

 d Force = 0.0000000E+00[ 0.000E+00, 0.000E+00]  d Energy = 0.8835575E-03-0.884E-03
 d Force = 0.0000000E+00[ 0.000E+00, 0.000E+00]  d Ewald  =-0.3352130E+01 0.335E+01

 reached required accuracy - stopping structural energy minimisation
 writing wavefunctions

 total charge

# of ion     s       p       d       tot
  1        0.487   0.341   9.521  10.349
  2        1.356   2.064   0.024   3.445
tot        1.843   2.405   9.546  13.793