 vasp.5.4.1 24Jun15 (build Nov 25 2015 16:39:35) complex

 executed on         CrayXC-Intel date 2016.09.27  09:47:00

 INCAR:
 POTCAR:    PAW_PBE Cd 06Sep2000
 POTCAR:    PAW_PBE Te 08Apr2002

 POTCAR:    PAW_PBE Cd 06Sep2000
   VRHFIN =Cd : s2 d10

   TITEL  = PAW_PBE Cd 06Sep2000
   POMASS =  112.411; ZVAL   =   12.000    mass and valenz
   ENMAX  =  274.336; ENMIN  =  205.752 eV

 POTCAR:    PAW_PBE Te 08Apr2002
   VRHFIN =Te: s2p4

   TITEL  = PAW_PBE Te 08Apr2002
   POMASS =  127.600; ZVAL   =    6.000    mass and valenz
   ENMAX  =  174.982; ENMIN  =  131.236 eV

  PAW_PBE Cd 06Sep2000                  :
  PAW_PBE Te 08Apr2002                  :

 POSCAR: CdTe (ICSD, 295K, Rabadanov 2001)
  positions in direct lattice
  velocities in cartesian coordinates
 exchange correlation table for  LEXCH =        8
   RHO(1)=    0.500       N(1)  =     2000
   RHO(2)=  100.500       N(2)  =     4000

 ion  position               nearest neighbor table
   1  0.000  0.000  0.000-   2 2.81   2 2.81   2 2.81   2 2.81
   2  0.250  0.250  0.250-   1 2.81   1 2.81   1 2.81   1 2.81

  LATTYP: Found a face centered cubic cell.
 ALAT       =     6.4827000000

  Lattice vectors:

 A1 = (   3.2413500000,   3.2413500000,   0.0000000000)
 A2 = (   3.2413500000,   0.0000000000,  -3.2413500000)
 A3 = (   0.0000000000,   3.2413500000,  -3.2413500000)

Analysis of symmetry for initial positions (statically):
 Subroutine PRICEL returns:
 Original cell was already a primitive cell.

 Routine SETGRP: Setting up the symmetry group for a
 face centered cubic supercell.

 Subroutine GETGRP returns: Found 24 space group operations
 (whereof 24 operations were pure point group operations)
 out of a pool of 48 trial point group operations.

The static configuration has the point symmetry T_d .

Analysis of symmetry for dynamics (positions and initial velocities):
 Subroutine PRICEL returns:
 Original cell was already a primitive cell.

[...]

The dynamic configuration has the point symmetry T_d .

Analysis of structural, dynamic, and magnetic symmetry:
 Subroutine PRICEL returns:
 Original cell was already a primitive cell.

 Routine SETGRP: Setting up the symmetry group for a
 face centered cubic supercell.

 Subroutine GETGRP returns: Found  3 space group operations
 (whereof  3 operations were pure point group operations)
 out of a pool of 48 trial point group operations.

The (compounded) configuration has the point symmetry C_3 .

 Subroutine INISYM returns: Found  3 space group operations
 (whereof  3 operations are pure point group operations),
 and found     1 'primitive' translations

 KPOINTS: Automatically generated mesh SCF: 16 ste
  k-points in reciprocal lattice
Space group operators:
 irot       det(A)        alpha          n_x          n_y          n_z        tau_x        tau_y        tau_z
    1     1.000000     0.000000     1.000000     0.000000     0.000000     0.000000     0.000000     0.000000
    2     1.000000   120.000000     0.577350     0.577350     0.577350     0.000000     0.000000     0.000000
    3     1.000000   120.000000    -0.577350    -0.577350    -0.577350     0.000000     0.000000     0.000000

 I would recommend the setting:
   dimension x,y,z NGX =    33 NGY =   33 NGZ =   33
 SYSTEM =  Name
 POSCAR =  CdTe (ICSD, 295K, Rabadanov 2001)

 Startparameter for this run:
   NWRITE =      2    write-flag & timer
   PREC   = accura    normal or accurate (medium, high low for compatibility)
   ISTART =      0    job   : 0-new  1-cont  2-samecut
   ICHARG =      2    charge: 1-file 2-atom 10-const
   ISPIN  =      1    spin polarized calculation?
   LNONCOLLINEAR =      T non collinear calculations
   LSORBIT =      T    spin-orbit coupling
   INIWAV =      1    electr: 0-lowe 1-rand  2-diag
   LASPH  =      F    aspherical Exc in radial PAW
   METAGGA=      F    non-selfconsistent MetaGGA calc.

 Electronic Relaxation 1
   ENCUT  =  500.0 eV  36.75 Ry    6.06 a.u.   8.36  8.36  8.36*2*pi/ulx,y,z
   ENINI  =  500.0     initial cutoff
   ENAUG  =  456.1 eV  augmentation charge cutoff
   NELM   =     60;   NELMIN=  2; NELMDL=  0     # of ELM steps
   EDIFF  = 0.1E-05   stopping-criterion for ELM
   LREAL  =      F    real-space projection
   NLSPLINE    = F    spline interpolate recip. space projectors
   LCOMPAT=      F    compatible to vasp.4.4
   GGA_COMPAT  = T    GGA compatible to vasp.4.4-vasp.4.6
   LMAXPAW     = -100 max onsite density
   LMAXMIX     =    2 max onsite mixed and CHGCAR
   VOSKOWN=      0    Vosko Wilk Nusair interpolation
   ROPT   =    0.00000   0.00000
 Ionic relaxation
   EDIFFG = -.5E-02   stopping-criterion for IOM
   NSW    =      1    number of steps for IOM
   NBLOCK =      1;   KBLOCK =      1    inner block; outer block
   IBRION =      2    ionic relax: 0-MD 1-quasi-New 2-CG
   NFREE  =      1    steps in history (QN), initial steepest desc. (CG)
   ISIF   =      3    stress and relaxation
   IWAVPR =     11    prediction:  0-non 1-charg 2-wave 3-comb
   ISYM   =      2    0-nonsym 1-usesym 2-fastsym
   LCORR  =      T    Harris-Foulkes like correction to forces

   POTIM  = 0.5000    time-step for ionic-motion
   TEIN   =    0.0    initial temperature
   TEBEG  =    0.0;   TEEND  =   0.0 temperature during run
   SMASS  =  -3.00    Nose mass-parameter (am)
   estimated Nose-frequenzy (Omega)   =  0.10E-29 period in steps =****** mass=  -0.480E-27a.u.
   SCALEE = 1.0000    scale energy and forces
   NPACO  =    256;   APACO  = 16.0  distance and # of slots for P.C.
   PSTRESS=    0.0 pullay stress

  Mass of Ions in am
   POMASS = 112.41127.60
  Ionic Valenz
   ZVAL   =  12.00  6.00
  Atomic Wigner-Seitz radii
  virtual crystal weights
   VCA    =   1.00  1.00
   NELECT =      18.0000    total number of electrons
   NUPDOWN=      -1.0000    fix difference up-down

 DOS related values:
   EMIN   =  10.00;   EMAX   =-10.00  energy-range for DOS
   EFERMI =   0.00
   ISMEAR =     0;   SIGMA  =   0.01  broadening in eV -4-tet -1-fermi 0-gaus

 Electronic relaxation 2 (details)
   IALGO  =     38    algorithm
   LDIAG  =      T    sub-space diagonalisation (order eigenvalues)
   LSUBROT=      F    optimize rotation matrix (better conditioning)
   TURBO    =      0    0=normal 1=particle mesh
   IRESTART =      0    0=no restart 2=restart with 2 vectors
   NREBOOT  =      0    no. of reboots
   NMIN     =      0    reboot dimension
   EREF     =   0.00    reference energy to select bands
   IMIX   =      4    mixing-type and parameters
     AMIX     =   0.40;   BMIX     =  1.00
     AMIX_MAG =   1.60;   BMIX_MAG =  1.00
     AMIN     =   0.10
     WC   =   100.;   INIMIX=   1;  MIXPRE=   1;  MAXMIX= -45

 Intra band minimization:
   WEIMIN = 0.0010     energy-eigenvalue tresh-hold
   EBREAK =  0.89E-08  absolut break condition
   DEPER  =   0.30     relativ break condition

   TIME   =   0.40     timestep for ELM

  volume/ion in A,a.u.               =      34.05       229.81
  Fermi-wavevector in a.u.,A,eV,Ry     =   1.050581  1.985311 15.017042  1.103721
  Thomas-Fermi vector in A             =   2.185590

 Write flags
   LWAVE  =      T    write WAVECAR
   LCHARG =      T    write CHGCAR
   LVTOT  =      F    write LOCPOT, total local potential
   LVHAR  =      F    write LOCPOT, Hartree potential only
   LELF   =      F    write electronic localiz. function (ELF)
   LORBIT =     10    0 simple, 1 ext, 2 COOP (PROOUT)

 Dipole corrections
   LMONO  =      F    monopole corrections only (constant potential shift)
   LDIPOL =      F    correct potential (dipole corrections)
   IDIPOL =      0    1-x, 2-y, 3-z, 4-all directions
   EPSILON=  1.0000000 bulk dielectric constant

 Core level calculations are selected ICORELEVEL =  1
 Exchange correlation treatment:
   GGA     =    PE    GGA type
   VOSKOWN=      0    Vosko Wilk Nusair interpolation
   LHFCALC =     F    Hartree Fock is set to
   LHFONE  =     F    Hartree Fock one center treatment
   AEXX    =    0.0000 exact exchange contribution

 Linear response parameters
   LEPSILON=     F    determine dielectric tensor
   LRPA    =     F    only Hartree local field effects (RPA)
   LNABLA  =     F    use nabla operator in PAW spheres
   LVEL    =     F    velocity operator in full k-point grid
   LINTERFAST=   F  fast interpolation
   KINTER  =     0    interpolate to denser k-point grid
   CSHIFT  =0.1000    complex shift for real part using Kramers Kronig
   OMEGAMAX=  -1.0    maximum frequency
   DEG_THRESHOLD= 0.2000000E-02 threshold for treating states as degnerate
   RTIME   =    0.100 relaxation time in fs

 Orbital magnetization related:
   ORBITALMAG=     F  switch on orbital magnetization
   LCHIMAG   =     F  perturbation theory with respect to B field
   DQ        =  0.001000  dq finite difference perturbation B field

 conjugate gradient relaxation of ions
 charge density and potential will be updated during run
 non collinear spin polarized calculation
 Variant of blocked Davidson
 Davidson routine will perform the subspace rotation
 perform sub-space diagonalisation
    after iterative eigenvector-optimisation
 modified Broyden-mixing scheme, WC =      100.0
 initial mixing is a Kerker type mixing with AMIX =  0.4000 and BMIX =      1.0000
 Hartree-type preconditioning will be used
 using additional bands           19
 reciprocal scheme for non local part
 use partial core corrections
 calculate Harris-corrections to forces
   (improved forces if not selfconsistent)
 use gradient corrections
 use of overlap-Matrix (Vanderbilt PP)
 Gauss-broadening in eV      SIGMA  =   0.01

  energy-cutoff  :      500.00
  volume of cell :       68.11
      direct lattice vectors                 reciprocal lattice vectors
     3.241350000  3.241350000  0.000000000     0.154256714  0.154256714  0.154256714
     3.241350000  0.000000000 -3.241350000     0.154256714 -0.154256714 -0.154256714
     0.000000000  3.241350000 -3.241350000    -0.154256714  0.154256714 -0.154256714

  length of vectors
     4.583961130  4.583961130  4.583961130     0.267180466  0.267180466  0.267180466

 k-points in units of 2pi/SCALE and weight: Automatically generated mesh SCF: 16 ste
   0.00000000  0.00000000  0.00000000       0.005
   0.16666667  0.16666667  0.16666667       0.037
   0.33333333  0.33333333  0.33333333       0.037
   0.50000000  0.50000000  0.50000000       0.019
   0.33333333  0.00000000  0.00000000       0.028
   0.50000000  0.16666667  0.16666667       0.111
   0.66666667  0.33333333  0.33333333       0.111
  -0.16666667 -0.50000000 -0.50000000       0.111
   0.00000000 -0.33333333 -0.33333333       0.056
   0.66666667  0.00000000  0.00000000       0.028
   0.83333333  0.16666667  0.16666667       0.111
   0.00000000 -0.66666667 -0.66666667       0.056
   1.00000000  0.00000000  0.00000000       0.014
   0.66666667  0.33333333  0.00000000       0.111
  -0.16666667 -0.50000000 -0.83333333       0.111
   0.00000000 -0.66666667 -1.00000000       0.056
   0.00000000  0.00000000  0.00000000       0.000
   0.00000000  0.00420168  0.00000000       0.000
   0.00000000  0.00840336  0.00000000       0.000
   0.00000000  0.01260504  0.00000000       0.000
   0.00000000  0.01680672  0.00000000       0.000
[...]
 k-point ** :   0.1996 0.0000 0.1996  plane waves:    3472
 k-point ** :   0.2017 0.0000 0.2017  plane waves:    3472
 k-point ** :   0.2038 0.0000 0.2038  plane waves:    3472
 k-point ** :   0.2059 0.0000 0.2059  plane waves:    3472
 k-point ** :   0.2080 0.0000 0.2080  plane waves:    3472
 k-point ** :   0.2101 0.0000 0.2101  plane waves:    3472
 k-point ** :   0.2122 0.0000 0.2122  plane waves:    3472
 k-point ** :   0.2143 0.0000 0.2143  plane waves:    3472
 k-point ** :   0.2164 0.0000 0.2164  plane waves:    3472
 k-point ** :   0.2185 0.0000 0.2185  plane waves:    3472
 k-point ** :   0.2206 0.0000 0.2206  plane waves:    3472
 k-point ** :   0.2227 0.0000 0.2227  plane waves:    3472
 k-point ** :   0.2248 0.0000 0.2248  plane waves:    3472
 k-point ** :   0.2269 0.0000 0.2269  plane waves:    3472
 k-point ** :   0.2290 0.0000 0.2290  plane waves:    3472
 k-point ** :   0.2311 0.0000 0.2311  plane waves:    3472
 k-point ** :   0.2332 0.0000 0.2332  plane waves:    3472
 k-point ** :   0.2353 0.0000 0.2353  plane waves:    3456
 k-point ** :   0.2374 0.0000 0.2374  plane waves:    3432
 k-point ** :   0.2395 0.0000 0.2395  plane waves:    3432
 k-point ** :   0.2416 0.0000 0.2416  plane waves:    3432
 k-point ** :   0.2437 0.0000 0.2437  plane waves:    3432
 k-point ** :   0.2458 0.0000 0.2458  plane waves:    3432
 k-point ** :   0.2479 0.0000 0.2479  plane waves:    3432
 k-point ** :   0.2500 0.0000 0.2500  plane waves:    3432
 k-point ** :   0.2521 0.0000 0.2521  plane waves:    3432
 k-point ** :   0.2542 0.0000 0.2542  plane waves:    3432
 k-point ** :   0.2563 0.0000 0.2563  plane waves:    3432
 k-point ** :   0.2584 0.0000 0.2584  plane waves:    3432
 k-point ** :   0.2605 0.0000 0.2605  plane waves:    3432
 k-point ** :   0.2626 0.0000 0.2626  plane waves:    3440
 k-point ** :   0.2647 0.0000 0.2647  plane waves:    3440
 k-point ** :   0.2668 0.0000 0.2668  plane waves:    3440
 k-point ** :   0.2689 0.0000 0.2689  plane waves:    3440
 k-point ** :   0.2710 0.0000 0.2710  plane waves:    3440
 k-point ** :   0.2731 0.0000 0.2731  plane waves:    3448
 k-point ** :   0.2752 0.0000 0.2752  plane waves:    3448
 k-point ** :   0.2773 0.0000 0.2773  plane waves:    3448
 k-point ** :   0.2794 0.0000 0.2794  plane waves:    3448
 k-point ** :   0.2815 0.0000 0.2815  plane waves:    3448
 k-point ** :   0.2836 0.0000 0.2836  plane waves:    3448
 k-point ** :   0.2857 0.0000 0.2857  plane waves:    3448
 k-point ** :   0.2878 0.0000 0.2878  plane waves:    3448
 k-point ** :   0.2899 0.0000 0.2899  plane waves:    3456
 k-point ** :   0.2920 0.0000 0.2920  plane waves:    3456
 k-point ** :   0.2941 0.0000 0.2941  plane waves:    3456
 k-point ** :   0.2962 0.0000 0.2962  plane waves:    3456
 k-point ** :   0.2983 0.0000 0.2983  plane waves:    3440
[...]
 k-point ** :   0.4685 0.0000 0.4685  plane waves:    3464
 k-point ** :   0.4706 0.0000 0.4706  plane waves:    3448
 k-point ** :   0.4727 0.0000 0.4727  plane waves:    3448
 k-point ** :   0.4748 0.0000 0.4748  plane waves:    3448
 k-point ** :   0.4769 0.0000 0.4769  plane waves:    3448
 k-point ** :   0.4790 0.0000 0.4790  plane waves:    3448
 k-point ** :   0.4811 0.0000 0.4811  plane waves:    3448
 k-point ** :   0.4832 0.0000 0.4832  plane waves:    3448
 k-point ** :   0.4853 0.0000 0.4853  plane waves:    3448
 k-point ** :   0.4874 0.0000 0.4874  plane waves:    3448
 k-point ** :   0.4895 0.0000 0.4895  plane waves:    3448
 k-point ** :   0.4916 0.0000 0.4916  plane waves:    3448
 k-point ** :   0.4937 0.0000 0.4937  plane waves:    3448
 k-point ** :   0.4958 0.0000 0.4958  plane waves:    3448
 k-point ** :   0.4979 0.0000 0.4979  plane waves:    3448

 maximum and minimum number of plane-waves per node :       166      112

 maximum number of plane-waves:      3550
 maximum index in each direction:
   IXMAX=    8   IYMAX=    8   IZMAX=    8
   IXMIN=   -8   IYMIN=   -8   IZMIN=   -8

 NGX is ok and might be reduce to  34
 NGY is ok and might be reduce to  34
 NGZ is ok and might be reduce to  34

 parallel 3D FFT for wavefunctions:
    minimum data exchange during FFTs selected (reduces bandwidth)
 parallel 3D FFT for charge:
    minimum data exchange during FFTs selected (reduces bandwidth)

 Broyden mixing: mesh for mixing (old mesh)
   NGX = 17   NGY = 17   NGZ = 17
  (NGX  = 72   NGY  = 72   NGZ  = 72)
  gives a total of   4913 points

 initial charge density was supplied:
 charge density of overlapping atoms calculated
 number of electron      18.0000000 magnetization       2.0000000      2.0000000      2.0000000
 keeping initial charge density in first step

 Maximum index for augmentation-charges         1676 (set IRDMAX)

 First call to EWALD:  gamma=   0.434
 Maximum number of real-space cells 3x 3x 3
 Maximum number of reciprocal cells 3x 3x 3

 FEWALD executed in parallel

----------------------------------------- Iteration    1(   1)  ---------------------------------------

 eigenvalue-minimisations  : 14232
 total energy-change (2. order) : 0.1098431E+03  (-0.8037615E+03)
 number of electron      18.0000000 magnetization       2.0000000      2.0000000      2.0000000
 augmentation part       18.0000000 magnetization       2.0000000      2.0000000      2.0000000

 Free energy of the ion-electron system (eV)
  alpha Z        PSCENC =        50.17222034
  Ewald energy   TEWEN  =     -1044.83138452
  -Hartree energ DENC   =      -510.12304479
  -exchange      EXHF   =         0.00000000
  -V(xc)+E(xc)   XCENC  =       -22.14237255
  PAW double counting   =      1403.96929583    -1331.69227184
  entropy T*S    EENTRO =        -0.00009615
  eigenvalues    EBANDS =        48.04416316
  atomic energy  EATOM  =      1516.44661579
  Solvation  Ediel_sol  =         0.00000000
  free energy    TOTEN  =       109.84312528 eV

  energy without entropy =      109.84322142  energy(sigma->0) =      109.84317335

[...]

 eigenvalue-minimisations  : 15588
 total energy-change (2. order) :-0.1087562E+03  (-0.1050185E+03)
 number of electron      18.0000000 magnetization       2.0000000      2.0000000      2.0000000
 augmentation part       18.0000000 magnetization       2.0000000      2.0000000      2.0000000

[...]

 total charge

# of ion     s       p       d       tot
  1        0.423   0.283   9.496  10.202
  2        1.377   2.200   0.023   3.600
tot        1.800   2.483   9.519  13.801

 magnetization (x)

[...]

 magnetization (y)

[...]

 magnetization (z)

[...]

 Broyden mixing:
  rms(total) = 0.11280E+01    rms(broyden)= 0.11279E+01
  rms(prec ) = 0.13117E+01
  weight for this iteration     100.00

[...]

 eigenvalues of (default mixing * dielectric matrix)
  average eigenvalue GAMMA=   0.7572
  0.7572

[...]

 eigenvalue-minimisations  : 14756
 total energy-change (2. order) : 0.9052600E-03  (-0.2170153E-02)
 number of electron      17.9999996 magnetization       0.0018614      0.0018614      0.0018614
 augmentation part        4.5778665 magnetization       0.0036905      0.0036905      0.0036905

[...]

 Broyden mixing:
  rms(total) = 0.38117E-03    rms(broyden)= 0.38117E-03
  rms(prec ) = 0.47871E-03
  weight for this iteration     100.00

 eigenvalues of (default mixing * dielectric matrix)
  average eigenvalue GAMMA=   1.2616
  2.6025  2.6025  1.5791  1.4145  0.9842  0.7952  0.7952  0.6418  0.6060  0.5951

[...]

----------------------------------------- Iteration    1(  16)  ---------------------------------------

 eigenvalue-minimisations  : 11188
 total energy-change (2. order) :-0.3624179E-06  (-0.4481741E-07)
 number of electron      17.9999996 magnetization       0.0003298      0.0003298      0.0003298
 augmentation part        4.5757397 magnetization       0.0004675      0.0004675      0.0004675

 Free energy of the ion-electron system (eV)
  alpha Z        PSCENC =        50.17222034
  Ewald energy   TEWEN  =     -1044.83138452
  -Hartree energ DENC   =      -503.72039370
  -exchange      EXHF   =         0.00000000
  -V(xc)+E(xc)   XCENC  =       -22.55086679
  PAW double counting   =      1798.67652994    -1726.10682701
  entropy T*S    EENTRO =        -0.00000000
  eigenvalues    EBANDS =       -72.97624897
  atomic energy  EATOM  =      1516.44661579
  Solvation  Ediel_sol  =         0.00000000
  free energy    TOTEN  =        -4.89035492 eV

  energy without entropy =       -4.89035492  energy(sigma->0) =       -4.89035492

 the core state eigenenergies are
   1-  1s -26513.5759  2s  -3930.7557  2p  -3526.0097  3s   -727.6291  3p   -594.9183
       3d   -387.3696  4s    -99.8123  4p    -60.8696
   2-  1s -31612.8653  2s  -4840.4525  2p  -4343.8473  3s   -956.6780  3p   -795.3357
       3d   -551.5852  4s   -156.1983  4p   -106.2387  4d    -33.5667

 E-fermi :   2.6753     XC(G=0):  -8.5711     alpha+bet : -7.4227

 k-point     1 :       0.0000    0.0000    0.0000
  band No.  band energies     occupation
      1      -8.8173      1.00000
      2      -8.8170      1.00000
      3      -6.2584      1.00000
      4      -6.2583      1.00000
      5      -6.2549      1.00000
      6      -6.2547      1.00000
      7      -5.7097      1.00000
      8      -5.7096      1.00000
      9      -5.4991      1.00000
     10      -5.4987      1.00000
     11      -5.4964      1.00000
     12      -5.4956      1.00000
     13       1.7796      1.00000
     14       1.7807      1.00000
     15       2.6058      1.00000
     16       2.6066      1.00000
     17       2.6274      1.00000
     18       2.6308      1.00000
     19       3.1173      0.00000
     20       3.1184      0.00000
     21       6.7195      0.00000
     22       6.7212      0.00000
     23       7.0499      0.00000
     24       7.0539      0.00000
     25       7.0561      0.00000
     26       7.0570      0.00000
     27       9.8122      0.00000
     28       9.8149      0.00000

[...]

 k-point   254 :       0.4979    0.0000    0.4979
  band No.  band energies     occupation
      1      -8.3092      1.00000
      2      -8.3090      1.00000
      3      -6.1874      1.00000
      4      -6.1873      1.00000
      5      -5.9653      1.00000
      6      -5.9650      1.00000
      7      -5.5293      1.00000
      8      -5.5290      1.00000
      9      -5.4598      1.00000
     10      -5.4596      1.00000
     11      -5.0610      1.00000
     12      -5.0605      1.00000
     13      -1.9792      1.00000
     14      -1.9786      1.00000
     15       0.3077      1.00000
     16       0.3098      1.00000
     17       0.6434      1.00000
     18       0.6449      1.00000
     19       4.9545      0.00000
     20       4.9553      0.00000
     21       5.0182      0.00000
     22       5.0199      0.00000
     23      11.0026      0.00000
     24      11.0045      0.00000
     25      11.4831      0.00000
     26      11.4878      0.00000
     27      11.6107      0.00000
     28      11.6147      0.00000

 soft charge-density along one line, spin component           1
         0         1         2         3         4         5         6         7         8         9
 total charge-density along one line

[...]

 soft charge-density along one line, spin component           4
         0         1         2         3         4         5         6         7         8         9
 total charge-density along one line

------------------------ aborting loop because EDIFF is reached ----------------------------------------

[...]

  FORCE on cell =-STRESS in cart. coord.  units (eV):
  Direction    XX          YY          ZZ          XY          YZ          ZX
  Alpha Z    50.17222    50.17222    50.17222
  Ewald    -348.27726  -348.27726  -348.27726     0.00000     0.00000     0.00000
  Hartree   167.90727   167.90727   167.90727     0.87320     0.87320     0.87320
  E(xc)     -87.43748   -87.43748   -87.43748     0.13932     0.13932     0.13932
  Local     -17.77643   -17.77643   -17.77643     0.76885     0.76883     0.76883
  n-local    23.93258    29.26441    28.36701    -1.50285    -2.77258    -0.89121
  augment     6.35413     6.35413     6.35413     0.57332     0.57334     0.57334
  Kinetic   200.61573   204.14694   204.33708    -1.58273    -3.02534    -1.18522
  Fock        0.00000     0.00000     0.00000     0.00000     0.00000     0.00000
  Total       1.16371     1.16371     1.16371    -1.29863    -1.29863    -1.29863
  in kB      27.37450    27.37450    27.37450   -30.54834   -30.54834   -30.54834

 VOLUME and BASIS-vectors are now :
  energy-cutoff  :      500.00
  volume of cell :       68.11
      direct lattice vectors                 reciprocal lattice vectors
     3.241350000  3.241350000  0.000000000     0.154256714  0.154256714  0.154256714
     3.241350000  0.000000000 -3.241350000     0.154256714 -0.154256714 -0.154256714
     0.000000000  3.241350000 -3.241350000    -0.154256714  0.154256714 -0.154256714

  length of vectors
     4.583961130  4.583961130  4.583961130     0.267180466  0.267180466  0.267180466

 FORCES acting on ions
    electron-ion (+dipol)            ewald-force                    non-local-force                 convergence-correction
   -.173E+01 -.173E+01 -.173E+01   -.744E-14 -.454E-14 0.998E-14   0.116E+01 0.116E+01 0.116E+01   0.323E-03 0.323E-03 0.323E-03
   0.123E+01 0.123E+01 0.123E+01   0.759E-14 0.606E-14 -.102E-13   -.655E+00 -.655E+00 -.655E+00   -.931E-05 -.931E-05 -.931E-05
   -.505E+00 -.505E+00 -.505E+00   0.152E-15 0.152E-14 -.238E-15   0.505E+00 0.505E+00 0.505E+00   0.313E-03 0.313E-03 0.313E-03

 POSITION                                       TOTAL-FORCE (eV/Angst)
      0.00000      0.00000      0.00000        -0.574236     -0.574236     -0.574236
      1.62068      1.62068     -1.62068         0.574236      0.574236      0.574236
    total drift:                               -0.000009     -0.000009     -0.000008

  FREE ENERGIE OF THE ION-ELECTRON SYSTEM (eV)
  free  energy   TOTEN  =        -4.89035492 eV

  energy  without entropy=       -4.89035492  energy(sigma->0) =       -4.89035492

 writing wavefunctions

 Spin-Orbit-Coupling matrix elements

 Ion:    1  E_soc:     -0.0611241
 l=   1
     0.0000000    -0.0032143    -0.0032143
    -0.0032143     0.0000000    -0.0032143
    -0.0032143    -0.0032143     0.0000000
 l=   2
     0.0000000    -0.0014032     0.0000000    -0.0014032    -0.0055699
    -0.0014032     0.0000000    -0.0041777    -0.0014032    -0.0013921
     0.0000000    -0.0041777     0.0000000    -0.0041771     0.0000000
    -0.0014032    -0.0014032    -0.0041771     0.0000000    -0.0013928
    -0.0055699    -0.0013921     0.0000000    -0.0013928     0.0000000
 l=   3
     0.0000000     0.0000000     0.0000000     0.0000000     0.0000000     0.0000000     0.0000000
     0.0000000     0.0000000     0.0000000     0.0000000     0.0000000     0.0000000     0.0000000
     0.0000000     0.0000000     0.0000000     0.0000000     0.0000000     0.0000000     0.0000000
     0.0000000     0.0000000     0.0000000     0.0000000     0.0000000     0.0000000     0.0000000
     0.0000000     0.0000000     0.0000000     0.0000000     0.0000000     0.0000000     0.0000000
     0.0000000     0.0000000     0.0000000     0.0000000     0.0000000     0.0000000     0.0000000
     0.0000000     0.0000000     0.0000000     0.0000000     0.0000000     0.0000000     0.0000000

 Ion:    2  E_soc:     -0.1971882
 l=   1
     0.0000000    -0.0327888    -0.0327888
    -0.0327888     0.0000000    -0.0327888
    -0.0327888    -0.0327888     0.0000000
 l=   2
     0.0000000    -0.0000309     0.0000000    -0.0000309    -0.0000450
    -0.0000309     0.0000000    -0.0000344    -0.0000309    -0.0000106
     0.0000000    -0.0000344     0.0000000    -0.0000331     0.0000000
    -0.0000309    -0.0000309    -0.0000331     0.0000000    -0.0000119
    -0.0000450    -0.0000106     0.0000000    -0.0000119     0.0000000
 l=   3
     0.0000000     0.0000000     0.0000000     0.0000000     0.0000000     0.0000000     0.0000000
     0.0000000     0.0000000     0.0000000     0.0000000     0.0000000     0.0000000     0.0000000
     0.0000000     0.0000000     0.0000000     0.0000000     0.0000000     0.0000000     0.0000000
     0.0000000     0.0000000     0.0000000     0.0000000     0.0000000     0.0000000     0.0000000
     0.0000000     0.0000000     0.0000000     0.0000000     0.0000000     0.0000000     0.0000000
     0.0000000     0.0000000     0.0000000     0.0000000     0.0000000     0.0000000     0.0000000
     0.0000000     0.0000000     0.0000000     0.0000000     0.0000000     0.0000000     0.0000000

 total charge

[...]

 magnetization (x)

[...]

 magnetization (y)

[...]

 magnetization (z)

# of ion     s       p       d       tot
  1        0.006  -0.003   0.001   0.003
  2       -0.000   0.001   0.000   0.000
tot        0.005  -0.003   0.001   0.003