 vasp.5.3.5 31Mar14 (build Apr 15 2015 10:45:18) complex

 executed on             LinuxIFC date 2016.02.15  14:56:49

 INCAR:
 POTCAR:    PAW_PBE Si 05Jan2001

 POTCAR:    PAW_PBE Si 05Jan2001
   VRHFIN =Si: s2p2

   TITEL  = PAW_PBE Si 05Jan2001
   POMASS =   28.085; ZVAL   =    4.000    mass and valenz
   ENMAX  =  245.345; ENMIN  =  184.009 eV

  PAW_PBE Si 05Jan2001                  :

 POSCAR: Si (Madelung Handbook, 295.7K)
  positions in direct lattice
  velocities in cartesian coordinates
 exchange correlation table for  LEXCH =        8
   RHO(1)=    0.500       N(1)  =     2000
   RHO(2)=  100.500       N(2)  =     4000

 ion  position               nearest neighbor table
   1  0.000  0.000  0.000-   2 2.35   2 2.35   2 2.35   2 2.35
   2  0.250  0.250  0.250-   1 2.35   1 2.35   1 2.35   1 2.35

  LATTYP: Found a face centered cubic cell.
 ALAT       =     5.4310000000

  Lattice vectors:

 A1 = (   2.7155000000,   2.7155000000,   0.0000000000)
 A2 = (   2.7155000000,   0.0000000000,  -2.7155000000)
 A3 = (   0.0000000000,   2.7155000000,  -2.7155000000)

Analysis of symmetry for initial positions (statically):
 Subroutine PRICEL returns:
 Original cell was already a primitive cell.

 Routine SETGRP: Setting up the symmetry group for a
 face centered cubic supercell.

 Subroutine GETGRP returns: Found 48 space group operations
 (whereof 24 operations were pure point group operations)
 out of a pool of 48 trial point group operations.

The static configuration has the point symmetry T_d .
 The point group associated with its full space group is O_h .

Analysis of symmetry for dynamics (positions and initial velocities):
 Subroutine PRICEL returns:
 Original cell was already a primitive cell.

 Routine SETGRP: Setting up the symmetry group for a
 face centered cubic supercell.

 Subroutine GETGRP returns: Found 48 space group operations
 (whereof 24 operations were pure point group operations)
 out of a pool of 48 trial point group operations.

The dynamic configuration has the point symmetry T_d .
 The point group associated with its full space group is O_h .

 KPOINTS: Automatically generated mesh
  k-points in reciprocal lattice
Space group operators:
 irot       det(A)        alpha          n_x          n_y          n_z        tau_x        tau_y        tau_z
    1     1.000000     0.000001     1.000000     0.000000     0.000000     0.000000     0.000000     0.000000
    2     1.000000   120.000000    -0.577350    -0.577350     0.577350     0.000000     0.000000     0.000000
    3     1.000000   120.000000     0.577350     0.577350    -0.577350     0.000000     0.000000     0.000000
    4    -1.000000    90.000000    -1.000000     0.000000     0.000000     0.000000     0.000000     0.000000
    5    -1.000000   180.000000     0.707107     0.707107     0.000000     0.000000     0.000000     0.000000
    6    -1.000000    90.000000     0.000000     1.000000     0.000000     0.000000     0.000000     0.000000
    7     1.000000   180.000000     1.000000     0.000000     0.000000     0.000000     0.000000     0.000000
    8     1.000000   120.000000     0.577350     0.577350     0.577350     0.000000     0.000000     0.000000
    9     1.000000   120.000000    -0.577350     0.577350     0.577350     0.000000     0.000000     0.000000
   10    -1.000000    90.000000     1.000000     0.000000     0.000000     0.000000     0.000000     0.000000
   11    -1.000000    90.000000     0.000000     0.000000     1.000000     0.000000     0.000000     0.000000
   12    -1.000000   180.000000     0.707107     0.000000    -0.707107     0.000000     0.000000     0.000000
   13     1.000000   120.000000     0.577350    -0.577350    -0.577350     0.000000     0.000000     0.000000
   14     1.000000   120.000000     0.577350    -0.577350     0.577350     0.000000     0.000000     0.000000
   15     1.000000   180.000000     0.000000     0.000000     1.000000     0.000000     0.000000     0.000000
   16    -1.000000    90.000000     0.000000    -1.000000     0.000000     0.000000     0.000000     0.000000
   17    -1.000000   180.000000     0.000000    -0.707107     0.707107     0.000000     0.000000     0.000000
   18    -1.000000    90.000000     0.000000     0.000000    -1.000000     0.000000     0.000000     0.000000
   19     1.000000   120.000000    -0.577350    -0.577350    -0.577350     0.000000     0.000000     0.000000
   20     1.000000   180.000000     0.000000     1.000000     0.000000     0.000000     0.000000     0.000000
   21     1.000000   120.000000    -0.577350     0.577350    -0.577350     0.000000     0.000000     0.000000
   22    -1.000000   180.000000     0.707107    -0.707107     0.000000     0.000000     0.000000     0.000000
   23    -1.000000   180.000000     0.000000     0.707107     0.707107     0.000000     0.000000     0.000000
   24    -1.000000   180.000000     0.707107     0.000000     0.707107     0.000000     0.000000     0.000000
   25    -1.000000     0.000001     1.000000     0.000000     0.000000     0.250000     0.250000     0.250000
   26    -1.000000   120.000000    -0.577350    -0.577350     0.577350     0.250000     0.250000     0.250000
   27    -1.000000   120.000000     0.577350     0.577350    -0.577350     0.250000     0.250000     0.250000
   28     1.000000    90.000000    -1.000000     0.000000     0.000000     0.250000     0.250000     0.250000
   29     1.000000   180.000000     0.707107     0.707107     0.000000     0.250000     0.250000     0.250000
   30     1.000000    90.000000     0.000000     1.000000     0.000000     0.250000     0.250000     0.250000
   31    -1.000000   180.000000     1.000000     0.000000     0.000000     0.250000     0.250000     0.250000
   32    -1.000000   120.000000     0.577350     0.577350     0.577350     0.250000     0.250000     0.250000
   33    -1.000000   120.000000    -0.577350     0.577350     0.577350     0.250000     0.250000     0.250000
   34     1.000000    90.000000     1.000000     0.000000     0.000000     0.250000     0.250000     0.250000
   35     1.000000    90.000000     0.000000     0.000000     1.000000     0.250000     0.250000     0.250000
   36     1.000000   180.000000     0.707107     0.000000    -0.707107     0.250000     0.250000     0.250000
   37    -1.000000   120.000000     0.577350    -0.577350    -0.577350     0.250000     0.250000     0.250000
   38    -1.000000   120.000000     0.577350    -0.577350     0.577350     0.250000     0.250000     0.250000
   39    -1.000000   180.000000     0.000000     0.000000     1.000000     0.250000     0.250000     0.250000
   40     1.000000    90.000000     0.000000    -1.000000     0.000000     0.250000     0.250000     0.250000
   41     1.000000   180.000000     0.000000    -0.707107     0.707107     0.250000     0.250000     0.250000
   42     1.000000    90.000000     0.000000     0.000000    -1.000000     0.250000     0.250000     0.250000
   43    -1.000000   120.000000    -0.577350    -0.577350    -0.577350     0.250000     0.250000     0.250000
   44    -1.000000   180.000000     0.000000     1.000000     0.000000     0.250000     0.250000     0.250000
   45    -1.000000   120.000000    -0.577350     0.577350    -0.577350     0.250000     0.250000     0.250000
   46     1.000000   180.000000     0.707107    -0.707107     0.000000     0.250000     0.250000     0.250000
   47     1.000000   180.000000     0.000000     0.707107     0.707107     0.250000     0.250000     0.250000
   48     1.000000   180.000000     0.707107     0.000000     0.707107     0.250000     0.250000     0.250000

 Subroutine IBZKPT_HF returns following result:

 Found    797 k-points in 1st BZ
 the following    797 k-points will be used (e.g. in the exchange kernel)
 Following reciprocal coordinates:   # in IRBZ
  0.000000  0.000000  0.000000       1 t-inv F
  0.166667  0.000000  0.000000       2 t-inv F
  0.333333  0.000000  0.000000       3 t-inv F
  0.500000  0.000000  0.000000       4 t-inv F
  0.166667  0.166667  0.000000       5 t-inv F
  0.333333  0.166667  0.000000       6 t-inv F
  0.500000  0.166667  0.000000       7 t-inv F
 -0.333333  0.166667  0.000000       8 t-inv F
 -0.166667  0.166667  0.000000       9 t-inv F
  0.333333  0.333333  0.000000      10 t-inv F
  0.500000  0.333333  0.000000      11 t-inv F
 -0.333333  0.333333  0.000000      12 t-inv F
  0.500000  0.500000  0.000000      13 t-inv F
  0.500000  0.333333  0.166667      14 t-inv F
 -0.333333  0.333333  0.166667      15 t-inv F
 -0.333333  0.500000  0.166667      16 t-inv F
  0.000000  0.000000  0.000000      17 t-inv F
  0.005000  0.000000  0.005000      18 t-inv F
  0.010000  0.000000  0.010000      19 t-inv F
  0.015000  0.000000  0.015000      20 t-inv F
  0.020000  0.000000  0.020000      21 t-inv F
  0.025000  0.000000  0.025000      22 t-inv F
  0.030000  0.000000  0.030000      23 t-inv F
  0.035000  0.000000  0.035000      24 t-inv F
  0.040000  0.000000  0.040000      25 t-inv F
  0.045000  0.000000  0.045000      26 t-inv F
  0.050000  0.000000  0.050000      27 t-inv F
  0.055000  0.000000  0.055000      28 t-inv F
  0.060000  0.000000  0.060000      29 t-inv F
  0.065000  0.000000  0.065000      30 t-inv F
  0.070000  0.000000  0.070000      31 t-inv F
  0.075000  0.000000  0.075000      32 t-inv F
  0.080000  0.000000  0.080000      33 t-inv F
  0.085000  0.000000  0.085000      34 t-inv F
  0.090000  0.000000  0.090000      35 t-inv F
  0.095000  0.000000  0.095000      36 t-inv F
  0.100000  0.000000  0.100000      37 t-inv F
  0.105000  0.000000  0.105000      38 t-inv F
  0.110000  0.000000  0.110000      39 t-inv F
  0.115000  0.000000  0.115000      40 t-inv F
  0.120000  0.000000  0.120000      41 t-inv F
  0.125000  0.000000  0.125000      42 t-inv F
  0.130000  0.000000  0.130000      43 t-inv F
  0.135000  0.000000  0.135000      44 t-inv F
  0.140000  0.000000  0.140000      45 t-inv F
  0.145000  0.000000  0.145000      46 t-inv F
  0.150000  0.000000  0.150000      47 t-inv F
  0.155000  0.000000  0.155000      48 t-inv F
  0.160000  0.000000  0.160000      49 t-inv F
  0.165000  0.000000  0.165000      50 t-inv F
  0.170000  0.000000  0.170000      51 t-inv F
  0.175000  0.000000  0.175000      52 t-inv F
  0.180000  0.000000  0.180000      53 t-inv F
  0.185000  0.000000  0.185000      54 t-inv F
  0.190000  0.000000  0.190000      55 t-inv F
  0.195000  0.000000  0.195000      56 t-inv F
  0.200000  0.000000  0.200000      57 t-inv F
  0.205000  0.000000  0.205000      58 t-inv F
  0.210000  0.000000  0.210000      59 t-inv F
  0.215000  0.000000  0.215000      60 t-inv F
[...]
  0.666667  0.333333  0.500000      15 t-inv F
 -0.333333  0.166667  0.333333      15 t-inv F
  0.333333 -0.333333  0.166667      15 t-inv F
  0.166667  0.333333 -0.333333      15 t-inv F
  0.166667 -0.333333  0.500000      16 t-inv F
  0.500000  0.166667 -0.333333      16 t-inv F
 -0.500000 -0.333333 -0.833333      16 t-inv F
  0.333333  0.833333  0.500000      16 t-inv F
 -0.166667 -0.500000  0.333333      16 t-inv F
  0.333333 -0.500000 -0.166667      16 t-inv F
  0.500000  0.833333  0.333333      16 t-inv F
  0.500000  0.333333  0.833333      16 t-inv F
[...]
   0.25000000  0.25000000  0.25000000

 position of ions in cartesian coordinates  (Angst):
   0.00000000  0.00000000  0.00000000
   1.35775000  1.35775000 -1.35775000

 k-point  1 :   0.0000 0.0000 0.0000  plane waves:     965
 k-point  2 :   0.1667 0.0000 0.0000  plane waves:     989
 k-point  3 :   0.3333 0.0000 0.0000  plane waves:    1008
 k-point  4 :   0.5000 0.0000 0.0000  plane waves:    1008
 k-point  5 :   0.1667 0.1667 0.0000  plane waves:     998
 k-point  6 :   0.3333 0.1667 0.0000  plane waves:    1011
 k-point  7 :   0.5000 0.1667 0.0000  plane waves:    1017
 k-point  8 :  -0.3333 0.1667 0.0000  plane waves:    1019
 k-point  9 :  -0.1667 0.1667 0.0000  plane waves:    1013
 k-point 10 :   0.3333 0.3333 0.0000  plane waves:    1018
 k-point 11 :   0.5000 0.3333 0.0000  plane waves:    1012
 k-point 12 :  -0.3333 0.3333 0.0000  plane waves:    1015
 k-point 13 :   0.5000 0.5000 0.0000  plane waves:    1034
 k-point 14 :   0.5000 0.3333 0.1667  plane waves:    1032
 k-point 15 :  -0.3333 0.3333 0.1667  plane waves:    1020
 k-point 16 :  -0.3333 0.5000 0.1667  plane waves:    1016
 k-point 17 :   0.0000 0.0000 0.0000  plane waves:     965
 k-point 18 :   0.0050 0.0000 0.0050  plane waves:     965
 k-point 19 :   0.0100 0.0000 0.0100  plane waves:     965
 k-point 20 :   0.0150 0.0000 0.0150  plane waves:     965
 k-point 21 :   0.0200 0.0000 0.0200  plane waves:     965
 k-point 22 :   0.0250 0.0000 0.0250  plane waves:     965
 k-point 23 :   0.0300 0.0000 0.0300  plane waves:     969
 k-point 24 :   0.0350 0.0000 0.0350  plane waves:     981
 k-point 25 :   0.0400 0.0000 0.0400  plane waves:     981
 k-point 26 :   0.0450 0.0000 0.0450  plane waves:     981
 k-point 27 :   0.0500 0.0000 0.0500  plane waves:     990
 k-point 28 :   0.0550 0.0000 0.0550  plane waves:     990
 k-point 29 :   0.0600 0.0000 0.0600  plane waves:     990
 k-point 30 :   0.0650 0.0000 0.0650  plane waves:     990
 k-point 31 :   0.0700 0.0000 0.0700  plane waves:     990
 k-point 32 :   0.0750 0.0000 0.0750  plane waves:     990
 k-point 33 :   0.0800 0.0000 0.0800  plane waves:     990
 k-point 34 :   0.0850 0.0000 0.0850  plane waves:    1002
 k-point 35 :   0.0900 0.0000 0.0900  plane waves:    1002
 k-point 36 :   0.0950 0.0000 0.0950  plane waves:    1002
 k-point 37 :   0.1000 0.0000 0.1000  plane waves:    1002
 k-point 38 :   0.1050 0.0000 0.1050  plane waves:    1002
 k-point 39 :   0.1100 0.0000 0.1100  plane waves:    1002
 k-point 40 :   0.1150 0.0000 0.1150  plane waves:    1002
 k-point 41 :   0.1200 0.0000 0.1200  plane waves:    1002
 k-point 42 :   0.1250 0.0000 0.1250  plane waves:     994
 k-point 43 :   0.1300 0.0000 0.1300  plane waves:     994
 k-point 44 :   0.1350 0.0000 0.1350  plane waves:     994
 k-point 45 :   0.1400 0.0000 0.1400  plane waves:     994
 k-point 46 :   0.1450 0.0000 0.1450  plane waves:     994
 k-point 47 :   0.1500 0.0000 0.1500  plane waves:     994
 k-point 48 :   0.1550 0.0000 0.1550  plane waves:     998
 k-point 49 :   0.1600 0.0000 0.1600  plane waves:     998
 k-point 50 :   0.1650 0.0000 0.1650  plane waves:     998
 k-point 51 :   0.1700 0.0000 0.1700  plane waves:     998
 k-point 52 :   0.1750 0.0000 0.1750  plane waves:     998
 k-point 53 :   0.1800 0.0000 0.1800  plane waves:     998
 k-point 54 :   0.1850 0.0000 0.1850  plane waves:     998
 k-point 55 :   0.1900 0.0000 0.1900  plane waves:     998
 k-point 56 :   0.1950 0.0000 0.1950  plane waves:     998
 k-point 57 :   0.2000 0.0000 0.2000  plane waves:     998
 k-point 58 :   0.2050 0.0000 0.2050  plane waves:     998
 k-point 59 :   0.2100 0.0000 0.2100  plane waves:     998
 k-point 60 :   0.2150 0.0000 0.2150  plane waves:     998
[...]
 k-point 85 :   0.3400 0.0000 0.3400  plane waves:    1026
 k-point 86 :   0.3450 0.0000 0.3450  plane waves:    1026
 k-point 87 :   0.3500 0.0000 0.3500  plane waves:    1026
 k-point 88 :   0.3550 0.0000 0.3550  plane waves:    1026
 k-point 89 :   0.3600 0.0000 0.3600  plane waves:    1026
 k-point 90 :   0.3650 0.0000 0.3650  plane waves:    1026
 k-point 91 :   0.3700 0.0000 0.3700  plane waves:    1026
 k-point 92 :   0.3750 0.0000 0.3750  plane waves:    1026
 k-point 93 :   0.3800 0.0000 0.3800  plane waves:    1026
 k-point 94 :   0.3850 0.0000 0.3850  plane waves:    1026
 k-point 95 :   0.3900 0.0000 0.3900  plane waves:    1030
 k-point 96 :   0.3950 0.0000 0.3950  plane waves:    1022
 k-point 97 :   0.4000 0.0000 0.4000  plane waves:    1022
 k-point 98 :   0.4050 0.0000 0.4050  plane waves:    1018
 k-point 99 :   0.4100 0.0000 0.4100  plane waves:    1018
 k-point ** :   0.4150 0.0000 0.4150  plane waves:    1018
 k-point ** :   0.4200 0.0000 0.4200  plane waves:    1010
 k-point ** :   0.4250 0.0000 0.4250  plane waves:    1010
 k-point ** :   0.4300 0.0000 0.4300  plane waves:    1010
 k-point ** :   0.4350 0.0000 0.4350  plane waves:    1010
 k-point ** :   0.4400 0.0000 0.4400  plane waves:    1010
 k-point ** :   0.4450 0.0000 0.4450  plane waves:    1010
 k-point ** :   0.4500 0.0000 0.4500  plane waves:    1014
 k-point ** :   0.4550 0.0000 0.4550  plane waves:    1014
 k-point ** :   0.4600 0.0000 0.4600  plane waves:    1014
 k-point ** :   0.4650 0.0000 0.4650  plane waves:    1014
 k-point ** :   0.4700 0.0000 0.4700  plane waves:    1014
 k-point ** :   0.4750 0.0000 0.4750  plane waves:    1018
 k-point ** :   0.4800 0.0000 0.4800  plane waves:    1018
 k-point ** :   0.4850 0.0000 0.4850  plane waves:    1018
 k-point ** :   0.4900 0.0000 0.4900  plane waves:    1018
 k-point ** :   0.4950 0.0000 0.4950  plane waves:    1018
 k-point ** :   0.5000 0.0000 0.5000  plane waves:    1034
 k-point ** :   0.5000 0.0064 0.5032  plane waves:    1020
 k-point ** :   0.5000 0.0128 0.5064  plane waves:    1017
 k-point ** :   0.5000 0.0192 0.5096  plane waves:    1017
 k-point ** :   0.5000 0.0256 0.5128  plane waves:    1016
 k-point ** :   0.5000 0.0321 0.5160  plane waves:    1016
 k-point ** :   0.5000 0.0385 0.5192  plane waves:    1015
 k-point ** :   0.5000 0.0449 0.5224  plane waves:    1015
 k-point ** :   0.5000 0.0513 0.5256  plane waves:    1014
 k-point ** :   0.5000 0.0577 0.5288  plane waves:    1013
 k-point ** :   0.5000 0.0641 0.5321  plane waves:    1012
 k-point ** :   0.5000 0.0705 0.5353  plane waves:    1012
 k-point ** :   0.5000 0.0769 0.5385  plane waves:    1012
 k-point ** :   0.5000 0.0833 0.5417  plane waves:    1011
 k-point ** :   0.5000 0.0897 0.5449  plane waves:    1011
 k-point ** :   0.5000 0.0962 0.5481  plane waves:    1013
 k-point ** :   0.5000 0.1026 0.5513  plane waves:    1013
 k-point ** :   0.5000 0.1090 0.5545  plane waves:    1016
 k-point ** :   0.5000 0.1154 0.5577  plane waves:    1017
 k-point ** :   0.5000 0.1218 0.5609  plane waves:    1019
 k-point ** :   0.5000 0.1282 0.5641  plane waves:    1018
 k-point ** :   0.5000 0.1346 0.5673  plane waves:    1019
 k-point ** :   0.5000 0.1410 0.5705  plane waves:    1019
 k-point ** :   0.5000 0.1474 0.5737  plane waves:    1018
 k-point ** :   0.5000 0.1538 0.5769  plane waves:    1017
 k-point ** :   0.5000 0.1603 0.5801  plane waves:    1021
 k-point ** :   0.5000 0.1667 0.5833  plane waves:    1019
 k-point ** :   0.5000 0.1731 0.5865  plane waves:    1019
 k-point ** :   0.5000 0.1795 0.5897  plane waves:    1020
 k-point ** :   0.5000 0.1859 0.5929  plane waves:    1017
 k-point ** :   0.5000 0.1923 0.5962  plane waves:    1016
 k-point ** :   0.5000 0.1987 0.5994  plane waves:    1015
 k-point ** :   0.5000 0.2051 0.6026  plane waves:    1016
 k-point ** :   0.5000 0.2115 0.6058  plane waves:    1016
 k-point ** :   0.5000 0.2179 0.6090  plane waves:    1017
 k-point ** :   0.5000 0.2244 0.6122  plane waves:    1017
 k-point ** :   0.5000 0.2308 0.6154  plane waves:    1018
 k-point ** :   0.5000 0.2372 0.6186  plane waves:    1017
 k-point ** :   0.5000 0.2436 0.6218  plane waves:    1018
 k-point ** :   0.5000 0.2500 0.6250  plane waves:    1019
 k-point ** :   0.4958 0.2542 0.6292  plane waves:    1021
 k-point ** :   0.4917 0.2583 0.6333  plane waves:    1022
 k-point ** :   0.4875 0.2625 0.6375  plane waves:    1021
[...]
 k-point ** :   0.4186 0.4186 0.6628  plane waves:    1016
 k-point ** :   0.4157 0.4157 0.6686  plane waves:    1016
 k-point ** :   0.4128 0.4128 0.6744  plane waves:    1020
 k-point ** :   0.4099 0.4099 0.6802  plane waves:    1019
 k-point ** :   0.4070 0.4070 0.6860  plane waves:    1017
 k-point ** :   0.4041 0.4041 0.6919  plane waves:    1017
 k-point ** :   0.4012 0.4012 0.6977  plane waves:    1015
 k-point ** :   0.3983 0.3983 0.7035  plane waves:    1017
 k-point ** :   0.3953 0.3953 0.7093  plane waves:    1021
 k-point ** :   0.3924 0.3924 0.7151  plane waves:    1013
 k-point ** :   0.3895 0.3895 0.7209  plane waves:    1015
 k-point ** :   0.3866 0.3866 0.7267  plane waves:    1013
 k-point ** :   0.3837 0.3837 0.7326  plane waves:    1013
 k-point ** :   0.3808 0.3808 0.7384  plane waves:    1013
 k-point ** :   0.3779 0.3779 0.7442  plane waves:    1013

 maximum and minimum number of plane-waves per node :      1036      965

 maximum number of plane-waves:      1036
 maximum index in each direction:
   IXMAX=    7   IYMAX=    7   IZMAX=    7
   IXMIN=   -7   IYMIN=   -7   IZMIN=   -7

 WARNING: aliasing errors must be expected set NGX to  30 to avoid them
 WARNING: aliasing errors must be expected set NGY to  30 to avoid them
 WARNING: aliasing errors must be expected set NGZ to  30 to avoid them
 aliasing errors are usually negligible using standard VASP settings
 and one can safely disregard these warnings

 serial   3D FFT for wavefunctions
 parallel 3D FFT for charge:
    minimum data exchange during FFTs selected (reduces bandwidth)

 FFT grid for exact exchange (Hartree Fock)
  NGX = 16; NGY = 16; NGZ = 16

 Radii for the augmentation spheres in the non-local exchange
 for species   1 augmentation radius   1.335 (default was   0.989)
       energy cutoff for augmentation   2000.0

 Broyden mixing: mesh for mixing (old mesh)
   NGX = 13   NGY = 13   NGZ = 13
  (NGX  = 56   NGY  = 56   NGZ  = 56)
  gives a total of   2197 points

 initial charge density was supplied:
 charge density of overlapping atoms calculated
 number of electron       8.0000000 magnetization
 charge density for first step will be calculated from the start-wavefunctions

 Maximum index for augmentation-charges         4527 (set IRDMAX)

 First call to EWALD:  gamma=   0.518
 Maximum number of real-space cells 3x 3x 3
 Maximum number of reciprocal cells 3x 3x 3

 FEWALD executed in parallel

----------------------------------------- Iteration    1(   1)  ---------------------------------------

 eigenvalue-minimisations  : 18000
 total energy-change (2. order) : 0.2069477E+03  (-0.1983494E+04)
 number of electron       8.0000000 magnetization
 augmentation part        8.0000000 magnetization

 Free energy of the ion-electron system (eV)
  alpha Z        PSCENC =         3.36228930
  Ewald energy   TEWEN  =      -228.52143995
  -Hartree energ DENC   =       -11.00937461
  -exchange      EXHF   =         0.00000000
  -V(xc)+E(xc)   XCENC  =       -14.92076487
  PAW double counting   =       171.67484864     -143.81433621
  entropy T*S    EENTRO =        -0.00061315
  eigenvalues    EBANDS =       226.14966325
  atomic energy  EATOM  =       204.02745786
  free energy    TOTEN  =       206.94773026 eV

  energy without entropy =      206.94834341  energy(sigma->0) =      206.94803684

[...]

 eigenvalue-minimisations  : 15104
 total energy-change (2. order) :-0.2007629E+03  (-0.1939490E+03)
 number of electron       8.0000000 magnetization
 augmentation part        8.0000000 magnetization

[...]

----------------------------------------- Iteration    1(  14)  ---------------------------------------

 eigenvalue-minimisations  :     0
 total energy-change (2. order) :-0.1929599E-06  (-0.1461371E-07)
 number of electron       8.0000001 magnetization
 augmentation part       -0.4340868 magnetization

 Free energy of the ion-electron system (eV)
  alpha Z        PSCENC =         3.36228930
  Ewald energy   TEWEN  =      -228.52143995
  -Hartree energ DENC   =       -15.02727455
  -exchange      EXHF   =        11.20244889
  -V(xc)+E(xc)   XCENC  =       -14.40473811
  PAW double counting   =      1696.23696775    -1668.56711322
  entropy T*S    EENTRO =        -0.00000000
  eigenvalues    EBANDS =        -0.84569669
  atomic energy  EATOM  =       204.02745786
  free energy    TOTEN  =       -12.53709872 eV

  energy without entropy =      -12.53709872  energy(sigma->0) =      -12.53709872

  average scaling for gradient   1.1856

 the core state eigenenergies are
   1-  1s    -79.5382  2s    -79.7350  2p    -79.7350
   2-  1s    -79.5382  2s    -79.7350  2p    -79.7350

 E-fermi :   5.5134     XC(G=0):  -7.8455     alpha+bet :-11.9779

 k-point     1 :       0.0000    0.0000    0.0000
  band No.  band energies     occupation
      1      -7.8147      2.00000
      2       5.4727      2.00000
      3       5.4727      2.00000
      4       5.4727      2.00000
      5       8.8009      0.00000
      6       8.8009      0.00000
      7       8.8009      0.00000
      8       9.7975      0.00000

[...]

 k-point   597 :       0.3779    0.3779    0.7442
  band No.  band energies     occupation
      1      -3.6920      2.00000
      2      -2.4966      2.00000
      3       0.7604      2.00000
      4       2.8388      2.00000
      5       7.3256      0.00000
      6      10.5440      0.00000
      7      14.0176      0.00000
      8      14.4799      0.00000

 soft charge-density along one line, spin component           1
         0         1         2         3         4         5         6         7         8         9
 total charge-density along one line

------------------------ aborting loop because EDIFF is reached ----------------------------------------

 total charge

# of ion     s       p       d       tot
  1        0.758   0.966   0.000   1.724
  2        0.758   0.966   0.000   1.724
tot        1.516   1.931   0.000   3.448

  FORCE on cell =-STRESS in cart. coord.  units (eV):
  Direction    XX          YY          ZZ          XY          YZ          ZX
  Alpha Z     3.36229     3.36229     3.36229
  Ewald     -76.17385   -76.17385   -76.17385     0.00000     0.00000    -0.00000
  Hartree     5.00909     5.00909     5.00909     0.00000    -0.00000    -0.00000
  E(xc)     -19.63170   -19.63170   -19.63170    -0.00000     0.00000     0.00000
  Local     -29.11894   -29.11894   -29.11894     0.00001    -0.00001    -0.00001
  n-local    70.69047    76.02348    75.22364    -1.09459    -2.23951    -0.72252
  augment   -10.68877   -10.68877   -10.68877    -0.00001     0.00001     0.00001
  Kinetic    54.78519    56.59743    58.39722    -1.07018    -3.46637    -1.00826
  Fock            NaN         NaN         NaN         NaN         NaN         NaN
  Total           NaN         NaN         NaN         NaN         NaN         NaN
  in kB           NaN         NaN         NaN         NaN         NaN         NaN

 VOLUME and BASIS-vectors are now :
  energy-cutoff  :      500.00
  volume of cell :       40.05
      direct lattice vectors                 reciprocal lattice vectors
     2.715500000  2.715500000  0.000000000     0.184128153  0.184128153  0.184128153
     2.715500000  0.000000000 -2.715500000     0.184128153 -0.184128153 -0.184128153
     0.000000000  2.715500000 -2.715500000    -0.184128153  0.184128153 -0.184128153

  length of vectors
     3.840296929  3.840296929  3.840296929     0.318919316  0.318919316  0.318919316

 FORCES acting on ions:
    Electron-Ion                     Ewald-Force                    Non-Local-Force
   -.759E-08 -.476E-08 0.476E-08   -.234E-14 -.182E-14 0.397E-14   -.121E-16 -.278E-16 0.486E-16
   0.759E-08 0.476E-08 -.476E-08   0.175E-14 0.186E-14 -.406E-14   0.694E-17 0.208E-16 -.555E-16
   -.139E-06 -.419E-07 0.204E-06   -.584E-15 0.335E-16 -.952E-16   -.520E-17 -.694E-17 -.694E-17

 POSITION                                       TOTAL-FORCE (eV/Angst)
      0.00000      0.00000      0.00000              NaN           NaN           NaN
      1.35775      1.35775     -1.35775              NaN           NaN           NaN
    total drift:                                     NaN           NaN           NaN

  FREE ENERGIE OF THE ION-ELECTRON SYSTEM (eV)
  free  energy   TOTEN  =       -12.53709872 eV

  energy  without entropy=      -12.53709872  energy(sigma->0) =      -12.53709872

 reached required accuracy - stopping structural energy minimisation
 writing wavefunctions

 total charge

# of ion     s       p       d       tot
  1        0.758   0.966   0.000   1.724
  2        0.758   0.966   0.000   1.724
tot        1.516   1.931   0.000   3.448