 vasp.5.3.5 31Mar14 (build Apr 15 2015 10:45:18) complex

 executed on             LinuxIFC date 2016.02.22  14:10:47

 INCAR:
 POTCAR:    PAW_PBE Cu_pv 06Sep2000
 POTCAR:    PAW_PBE Zn 06Sep2000
 POTCAR:    PAW_PBE Sn_d 06Sep2000
 POTCAR:    PAW_PBE S 06Sep2000

 POTCAR:    PAW_PBE Cu_pv 06Sep2000
   VRHFIN =Cu: d10 p1

   TITEL  = PAW_PBE Cu_pv 06Sep2000
   POMASS =   63.546; ZVAL   =   17.000    mass and valenz
   ENMAX  =  368.648; ENMIN  =  276.486 eV

 POTCAR:    PAW_PBE Zn 06Sep2000
   VRHFIN =Zn: d10 p2

   TITEL  = PAW_PBE Zn 06Sep2000
   POMASS =   65.390; ZVAL   =   12.000    mass and valenz
   ENMAX  =  276.723; ENMIN  =  207.542 eV

 POTCAR:    PAW_PBE Sn_d 06Sep2000
   VRHFIN =Sn: s2p2

   TITEL  = PAW_PBE Sn_d 06Sep2000
   POMASS =  118.710; ZVAL   =   14.000    mass and valenz
   ENMAX  =  241.083; ENMIN  =  180.812 eV

 POTCAR:    PAW_PBE S 06Sep2000
   VRHFIN =S : s2p4

   TITEL  = PAW_PBE S 06Sep2000
   POMASS =   32.066; ZVAL   =    6.000    mass and valenz
   ENMAX  =  258.689; ENMIN  =  194.016 eV

  PAW_PBE Cu_pv 06Sep2000               :
  PAW_PBE Zn 06Sep2000                  :
  PAW_PBE Sn_d 06Sep2000                :
  PAW_PBE S 06Sep2000                   :

 POSCAR: Cu2ZnSnS4 (LaFond 2014, 293 K)
  positions in direct lattice
 exchange correlation table for  LEXCH =       14
   RHO(1)=    0.500       N(1)  =     2000
   RHO(2)=  100.500       N(2)  =     4000

 ion  position               nearest neighbor table
   1  0.000  0.000  0.000-   5 2.32   6 2.32   7 2.32   8 2.32
   2  0.750  0.250  0.500-   8 2.32   6 2.32   7 2.32   5 2.32
   3  0.500  0.500  0.000-   8 2.35   6 2.35   7 2.35   5 2.35
   4  0.250  0.750  0.500-   8 2.42   6 2.42   7 2.42   5 2.42
   5  0.118  0.134  0.244-   1 2.32   2 2.32   3 2.35   4 2.42
   6  0.639  0.623  0.244-   1 2.32   2 2.32   3 2.35   4 2.42
   7  0.866  0.361  0.756-   1 2.32   2 2.32   3 2.35   4 2.42
   8  0.377  0.882  0.756-   1 2.32   2 2.32   3 2.35   4 2.42

  LATTYP: Found a body centered tetragonal cell.
 ALAT       =     5.4353000000
 C/A-ratio  =     1.9955400000

  Lattice vectors:

 A1 = (   2.7176500000,  -2.7176500000,   5.4231792810)
 A2 = (  -2.7176500000,   2.7176500000,   5.4231792810)
 A3 = (  -2.7176500000,  -2.7176500000,  -5.4231792810)

Analysis of symmetry for initial positions (statically):
 Subroutine PRICEL returns:
 Original cell was already a primitive cell.

 Routine SETGRP: Setting up the symmetry group for a
 body centered tetragonal supercell.

 Subroutine GETGRP returns: Found  4 space group operations
 (whereof  4 operations were pure point group operations)
 out of a pool of 16 trial point group operations.

The static configuration has the point symmetry S_4 .

Analysis of symmetry for dynamics (positions and initial velocities):
 Subroutine PRICEL returns:
 Original cell was already a primitive cell.

 Routine SETGRP: Setting up the symmetry group for a
 body centered tetragonal supercell.

 Subroutine GETGRP returns: Found  4 space group operations
 (whereof  4 operations were pure point group operations)
 out of a pool of 16 trial point group operations.

The dynamic configuration has the point symmetry S_4 .

 KPOINTS: Automatic mesh

Automatic generation of k-mesh.
Space group operators:
 irot       det(A)        alpha          n_x          n_y          n_z        tau_x        tau_y        tau_z
    1     1.000000     0.000000     1.000000     0.000000     0.000000     0.000000     0.000000     0.000000
    2    -1.000000    90.000000     0.000000     0.000000    -1.000000     0.000000     0.000000     0.000000
    3     1.000000   180.000000     0.000000     0.000000     1.000000     0.000000     0.000000     0.000000
    4    -1.000000    90.000000     0.000000     0.000000     1.000000     0.000000     0.000000     0.000000

 Subroutine IBZKPT returns following result:

 Found     51 irreducible k-points:

 Following reciprocal coordinates:
            Coordinates               Weight
  0.000000  0.000000  0.000000      1.000000
  0.166667  0.000000  0.000000      4.000000
  0.333333  0.000000  0.000000      4.000000
  0.500000  0.000000  0.000000      4.000000
  0.166667  0.166667  0.000000      2.000000
  0.333333  0.166667  0.000000      4.000000
  0.500000  0.166667  0.000000      4.000000
 -0.333333  0.166667  0.000000      2.000000
 -0.166667  0.166667  0.000000      2.000000
  0.166667  0.333333  0.000000      4.000000
  0.333333  0.333333  0.000000      2.000000
  0.500000  0.333333 -0.000000      4.000000
 -0.333333  0.333333  0.000000      2.000000
 -0.166667  0.333333  0.000000      2.000000
  0.166667  0.500000  0.000000      4.000000
  0.333333  0.500000 -0.000000      4.000000
  0.500000  0.500000  0.000000      2.000000
  0.000000  0.000000  0.250000      2.000000
  0.166667  0.000000  0.250000      4.000000
  0.333333  0.000000  0.250000      4.000000
  0.500000  0.000000  0.250000      4.000000
 -0.333333  0.000000  0.250000      4.000000
 -0.166667  0.000000  0.250000      4.000000
  0.166667  0.166667  0.250000      2.000000
  0.333333  0.166667  0.250000      2.000000
  0.500000  0.166667  0.250000      4.000000
 -0.333333  0.166667  0.250000      2.000000
 -0.166667  0.166667  0.250000      4.000000
  0.166667  0.333333  0.250000      2.000000
  0.333333  0.333333  0.250000      2.000000
  0.500000  0.333333  0.250000      4.000000
 -0.333333  0.333333  0.250000      4.000000
 -0.166667  0.333333  0.250000      2.000000
  0.166667  0.500000  0.250000      4.000000
  0.333333  0.500000  0.250000      4.000000
  0.500000  0.500000  0.250000      2.000000
  0.166667 -0.333333  0.250000      2.000000
 -0.333333 -0.333333  0.250000      2.000000
 -0.166667 -0.333333  0.250000      2.000000
  0.333333 -0.166667  0.250000      2.000000
 -0.333333 -0.166667  0.250000      2.000000
 -0.166667 -0.166667  0.250000      2.000000
  0.000000  0.000000  0.500000      1.000000
  0.166667  0.000000  0.500000      4.000000
  0.333333  0.000000  0.500000      4.000000
  0.166667  0.166667  0.500000      2.000000
 -0.333333  0.166667  0.500000      2.000000
 -0.166667  0.166667  0.500000      2.000000
  0.333333  0.333333  0.500000      2.000000
 -0.333333  0.333333  0.500000      2.000000
 -0.166667  0.333333  0.500000      2.000000

 Following cartesian coordinates:
            Coordinates               Weight
  0.000000  0.000000  0.000000      1.000000
  0.166667  0.000000 -0.083520      4.000000
  0.333333  0.000000 -0.167039      4.000000
  0.500000  0.000000 -0.250559      4.000000
  0.166667  0.166667 -0.167039      2.000000
  0.333333  0.166667 -0.250559      4.000000
  0.500000  0.166667 -0.334078      4.000000
 -0.333333  0.166667  0.083520      2.000000
 -0.166667  0.166667  0.000000      2.000000
  0.166667  0.333333 -0.250559      4.000000
  0.333333  0.333333 -0.334078      2.000000
  0.500000  0.333333 -0.417598      4.000000
 -0.333333  0.333333  0.000000      2.000000
 -0.166667  0.333333 -0.083520      2.000000
  0.166667  0.500000 -0.334078      4.000000
  0.333333  0.500000 -0.417598      4.000000
  0.500000  0.500000 -0.501117      2.000000
  0.000000  0.000000  0.250559      2.000000
  0.166667  0.000000  0.167039      4.000000
  0.333333  0.000000  0.083520      4.000000
  0.500000  0.000000  0.000000      4.000000
 -0.333333  0.000000  0.417598      4.000000
 -0.166667  0.000000  0.334078      4.000000
  0.166667  0.166667  0.083520      2.000000
  0.333333  0.166667  0.000000      2.000000
  0.500000  0.166667 -0.083520      4.000000
 -0.333333  0.166667  0.334078      2.000000
 -0.166667  0.166667  0.250559      4.000000
  0.166667  0.333333  0.000000      2.000000
  0.333333  0.333333 -0.083520      2.000000
  0.500000  0.333333 -0.167039      4.000000
 -0.333333  0.333333  0.250559      4.000000
 -0.166667  0.333333  0.167039      2.000000
  0.166667  0.500000 -0.083520      4.000000
  0.333333  0.500000 -0.167039      4.000000
  0.500000  0.500000 -0.250559      2.000000
  0.166667 -0.333333  0.334078      2.000000
 -0.333333 -0.333333  0.584637      2.000000
 -0.166667 -0.333333  0.501117      2.000000
  0.333333 -0.166667  0.167039      2.000000
 -0.333333 -0.166667  0.501117      2.000000
 -0.166667 -0.166667  0.417598      2.000000
  0.000000  0.000000  0.501117      1.000000
  0.166667  0.000000  0.417598      4.000000
  0.333333  0.000000  0.334078      4.000000
  0.166667  0.166667  0.334078      2.000000
 -0.333333  0.166667  0.584637      2.000000
 -0.166667  0.166667  0.501117      2.000000
  0.333333  0.333333  0.167039      2.000000
 -0.333333  0.333333  0.501117      2.000000
 -0.166667  0.333333  0.417598      2.000000

 I would recommend the setting:
   dimension x,y,z NGX =    40 NGY =   40 NGZ =   48
 SYSTEM =  Name
 POSCAR =  Cu2ZnSnS4 (LaFond 2014, 293 K)

 Startparameter for this run:
   NWRITE =      2    write-flag & timer
   PREC   = accura    normal or accurate (medium, high low for compatibility)
   ISTART =      0    job   : 0-new  1-cont  2-samecut
   ICHARG =      2    charge: 1-file 2-atom 10-const
   ISPIN  =      1    spin polarized calculation?
   LNONCOLLINEAR =      F non collinear calculations
   LSORBIT =      F    spin-orbit coupling
   INIWAV =      1    electr: 0-lowe 1-rand  2-diag
   LASPH  =      F    aspherical Exc in radial PAW
   METAGGA=      F    non-selfconsistent MetaGGA calc.

 Electronic Relaxation 1
   ENCUT  =  500.0 eV  36.75 Ry    6.06 a.u.   9.91  9.91 12.12*2*pi/ulx,y,z
   ENINI  =  500.0     initial cutoff
   ENAUG  =  758.2 eV  augmentation charge cutoff
   NELM   =     60;   NELMIN=  2; NELMDL=  0     # of ELM steps
   EDIFF  = 0.1E-05   stopping-criterion for ELM
   LREAL  =      F    real-space projection
   NLSPLINE    = F    spline interpolate recip. space projectors
   LCOMPAT=      F    compatible to vasp.4.4
   GGA_COMPAT  = T    GGA compatible to vasp.4.4-vasp.4.6
   LMAXPAW     = -100 max onsite density
   LMAXMIX     =    2 max onsite mixed and CHGCAR
   VOSKOWN=      0    Vosko Wilk Nusair interpolation
   ROPT   =    0.00000   0.00000   0.00000   0.00000
 Ionic relaxation
   EDIFFG = -.5E-02   stopping-criterion for IOM
   NSW    =      0    number of steps for IOM
   NBLOCK =      1;   KBLOCK =      1    inner block; outer block
   IBRION =     -1    ionic relax: 0-MD 1-quasi-New 2-CG
   NFREE  =      1    steps in history (QN), initial steepest desc. (CG)
   ISIF   =      3    stress and relaxation
   IWAVPR =     10    prediction:  0-non 1-charg 2-wave 3-comb
   ISYM   =      2    0-nonsym 1-usesym 2-fastsym
   LCORR  =      T    Harris-Foulkes like correction to forces

   POTIM  = 0.5000    time-step for ionic-motion
   TEIN   =    0.0    initial temperature
   TEBEG  =    0.0;   TEEND  =   0.0 temperature during run
   SMASS  =  -3.00    Nose mass-parameter (am)
   estimated Nose-frequenzy (Omega)   =  0.10E-29 period in steps =****** mass=  -0.675E-27a.u.
   SCALEE = 1.0000    scale energy and forces
   NPACO  =    256;   APACO  = 16.0  distance and # of slots for P.C.
   PSTRESS=    0.0 pullay stress

  Mass of Ions in am
   POMASS =  63.55 65.39118.71 32.07
  Ionic Valenz
   ZVAL   =  17.00 12.00 14.00  6.00
  Atomic Wigner-Seitz radii
[...]
   1.30212853  1.38979311  1.32104849
   4.13317147  4.04550689  1.32104849
   6.76315689  4.01977853  4.10213079
   4.10744311  6.85082147  4.10213079

 k-point  1 :   0.0000 0.0000 0.0000  plane waves:    4055
 k-point  2 :   0.1667 0.0000 0.0000  plane waves:    4054
 k-point  3 :   0.3333 0.0000 0.0000  plane waves:    4078
 k-point  4 :   0.5000 0.0000 0.0000  plane waves:    4072
 k-point  5 :   0.1667 0.1667 0.0000  plane waves:    4054
 k-point  6 :   0.3333 0.1667 0.0000  plane waves:    4071
 k-point  7 :   0.5000 0.1667 0.0000  plane waves:    4069
 k-point  8 :  -0.3333 0.1667 0.0000  plane waves:    4066
 k-point  9 :  -0.1667 0.1667 0.0000  plane waves:    4058
 k-point 10 :   0.1667 0.3333 0.0000  plane waves:    4071
 k-point 11 :   0.3333 0.3333 0.0000  plane waves:    4064
 k-point 12 :   0.5000 0.3333-0.0000  plane waves:    4074
 k-point 13 :  -0.3333 0.3333 0.0000  plane waves:    4068
 k-point 14 :  -0.1667 0.3333 0.0000  plane waves:    4066
 k-point 15 :   0.1667 0.5000 0.0000  plane waves:    4069
 k-point 16 :   0.3333 0.5000-0.0000  plane waves:    4074
 k-point 17 :   0.5000 0.5000 0.0000  plane waves:    4054
 k-point 18 :   0.0000 0.0000 0.2500  plane waves:    4056
 k-point 19 :   0.1667 0.0000 0.2500  plane waves:    4052
 k-point 20 :   0.3333 0.0000 0.2500  plane waves:    4063
 k-point 21 :   0.5000 0.0000 0.2500  plane waves:    4072
 k-point 22 :  -0.3333 0.0000 0.2500  plane waves:    4078
 k-point 23 :  -0.1667 0.0000 0.2500  plane waves:    4068
 k-point 24 :   0.1667 0.1667 0.2500  plane waves:    4060
 k-point 25 :   0.3333 0.1667 0.2500  plane waves:    4064
 k-point 26 :   0.5000 0.1667 0.2500  plane waves:    4070
 k-point 27 :  -0.3333 0.1667 0.2500  plane waves:    4071
 k-point 28 :  -0.1667 0.1667 0.2500  plane waves:    4057
 k-point 29 :   0.1667 0.3333 0.2500  plane waves:    4064
 k-point 30 :   0.3333 0.3333 0.2500  plane waves:    4061
 k-point 31 :   0.5000 0.3333 0.2500  plane waves:    4074
 k-point 32 :  -0.3333 0.3333 0.2500  plane waves:    4055
 k-point 33 :  -0.1667 0.3333 0.2500  plane waves:    4063
 k-point 34 :   0.1667 0.5000 0.2500  plane waves:    4070
 k-point 35 :   0.3333 0.5000 0.2500  plane waves:    4074
 k-point 36 :   0.5000 0.5000 0.2500  plane waves:    4080
 k-point 37 :   0.1667-0.3333 0.2500  plane waves:    4071
 k-point 38 :  -0.3333-0.3333 0.2500  plane waves:    4085
 k-point 39 :  -0.1667-0.3333 0.2500  plane waves:    4082
 k-point 40 :   0.3333-0.1667 0.2500  plane waves:    4063
 k-point 41 :  -0.3333-0.1667 0.2500  plane waves:    4082
 k-point 42 :  -0.1667-0.1667 0.2500  plane waves:    4064
 k-point 43 :   0.0000 0.0000 0.5000  plane waves:    4040
 k-point 44 :   0.1667 0.0000 0.5000  plane waves:    4060
 k-point 45 :   0.3333 0.0000 0.5000  plane waves:    4074
 k-point 46 :   0.1667 0.1667 0.5000  plane waves:    4069
 k-point 47 :  -0.3333 0.1667 0.5000  plane waves:    4077
 k-point 48 :  -0.1667 0.1667 0.5000  plane waves:    4058
 k-point 49 :   0.3333 0.3333 0.5000  plane waves:    4050
 k-point 50 :  -0.3333 0.3333 0.5000  plane waves:    4094
 k-point 51 :  -0.1667 0.3333 0.5000  plane waves:    4077

 maximum and minimum number of plane-waves per node :      1042      982

 maximum number of plane-waves:      4094
 maximum index in each direction:
   IXMAX=   10   IYMAX=   10   IZMAX=   12
   IXMIN=  -10   IYMIN=  -10   IZMIN=  -12

 WARNING: aliasing errors must be expected set NGX to  42 to avoid them
 WARNING: aliasing errors must be expected set NGY to  42 to avoid them
 WARNING: aliasing errors must be expected set NGZ to  50 to avoid them
 aliasing errors are usually negligible using standard VASP settings
 and one can safely disregard these warnings

 parallel 3D FFT for wavefunctions:
    minimum data exchange during FFTs selected (reduces bandwidth)
 parallel 3D FFT for charge:
    minimum data exchange during FFTs selected (reduces bandwidth)

 Broyden mixing: mesh for mixing (old mesh)
   NGX = 19   NGY = 19   NGZ = 25
  (NGX  = 80   NGY  = 80   NGZ  = 96)
  gives a total of   9025 points

 initial charge density was supplied:
 charge density of overlapping atoms calculated
 number of electron      84.0000000 magnetization
 keeping initial charge density in first step

 Maximum index for augmentation-charges         1303 (set IRDMAX)

 First call to EWALD:  gamma=   0.326
 Maximum number of real-space cells 3x 3x 3
 Maximum number of reciprocal cells 3x 3x 3

 FEWALD executed in parallel

----------------------------------------- Iteration    1(   1)  ---------------------------------------

 eigenvalue-minimisations  :  6264
 total energy-change (2. order) : 0.9582761E+03  (-0.4379689E+04)
 number of electron      84.0000000 magnetization
 augmentation part       84.0000000 magnetization

 Free energy of the ion-electron system (eV)
  alpha Z        PSCENC =       275.46753454
  Ewald energy   TEWEN  =     -7155.92568703
  -Hartree energ DENC   =     -5111.05795514
  -exchange      EXHF   =         0.00000000
  -V(xc)+E(xc)   XCENC  =       384.73373924
  PAW double counting   =     10848.82053981   -11350.99692210
  entropy T*S    EENTRO =        -0.00015995
  eigenvalues    EBANDS =        86.08463962
  atomic energy  EATOM  =     12981.15041703
  free energy    TOTEN  =       958.27614601 eV

  energy without entropy =      958.27630597  energy(sigma->0) =      958.27622599

[...]

 eigenvalue-minimisations  :  5320
 total energy-change (2. order) :-0.8595454E+03  (-0.8319581E+03)
 number of electron      84.0000000 magnetization
 augmentation part       84.0000000 magnetization

[...]

 Broyden mixing:
  rms(total) = 0.19165E+01    rms(broyden)= 0.19164E+01
  rms(prec ) = 0.28207E+01
  weight for this iteration     100.00

[...]

 eigenvalues of (default mixing * dielectric matrix)
  average eigenvalue GAMMA=   0.3437
  0.3437

[...]

 eigenvalue-minimisations  :  7704
 total energy-change (2. order) : 0.6333539E-05  (-0.7612964E-05)
 number of electron      83.9999897 magnetization
 augmentation part       33.9182663 magnetization

[...]

 Broyden mixing:
  rms(total) = 0.59707E-03    rms(broyden)= 0.59701E-03
  rms(prec ) = 0.73104E-03
  weight for this iteration     100.00

 eigenvalues of (default mixing * dielectric matrix)
  average eigenvalue GAMMA=   1.2781
  2.4662  2.4662  1.8226  1.3278  1.3278  0.6447  0.6447  1.0322  1.0322  0.8043
  0.4904

[...]

----------------------------------------- Iteration    1(  17)  ---------------------------------------

 eigenvalue-minimisations  :  3580
 total energy-change (2. order) :-0.4879294E-06  (-0.1193343E-06)
 number of electron      83.9999897 magnetization
 augmentation part       33.9181643 magnetization

 Free energy of the ion-electron system (eV)
  alpha Z        PSCENC =       275.46753454
  Ewald energy   TEWEN  =     -7155.92568703
  -Hartree energ DENC   =     -5039.24277044
  -exchange      EXHF   =         0.00000000
  -V(xc)+E(xc)   XCENC  =       383.32704846
  PAW double counting   =     13039.61576067   -13549.27332735
  entropy T*S    EENTRO =        -0.00000000
  eigenvalues    EBANDS =      -970.88947326
  atomic energy  EATOM  =     12981.15041703
  free energy    TOTEN  =       -35.77049739 eV

  energy without entropy =      -35.77049739  energy(sigma->0) =      -35.77049739

 the core state eigenenergies are
   1-  1s  -8842.9126  2s  -1055.2195  2p   -909.6777  3s   -107.0700
   2-  1s  -8842.9276  2s  -1055.2306  2p   -909.6892  3s   -107.0829
   3-  1s  -9516.8198  2s  -1150.3373  2p   -995.9918  3s   -121.3593  3p    -75.5220

   4-  1s -28998.8074  2s  -4370.2860  2p  -3921.9060  3s   -836.5388  3p   -690.0861
       3d   -464.7959  4s   -125.4842  4p    -81.2665
   5-  1s  -2395.4966  2s   -201.5082  2p   -146.2859
   6-  1s  -2395.4966  2s   -201.5082  2p   -146.2859
   7-  1s  -2395.4966  2s   -201.5082  2p   -146.2859
   8-  1s  -2395.4966  2s   -201.5082  2p   -146.2859

 E-fermi :   4.7165     XC(G=0): -10.0632     alpha+bet : -9.9404

 k-point     1 :       0.0000    0.0000    0.0000
  band No.  band energies     occupation
      1     -64.3059      2.00000
      2     -64.2511      2.00000
      3     -64.2511      2.00000
      4     -64.2284      2.00000
      5     -64.2284      2.00000
      6     -64.2218      2.00000
      7     -17.5206      2.00000
      8     -17.5167      2.00000
      9     -17.5167      2.00000
     10     -17.4307      2.00000
     11     -17.4250      2.00000
     12      -9.8885      2.00000
     13      -8.3355      2.00000
     14      -8.3247      2.00000
     15      -8.3247      2.00000
     16      -3.4618      2.00000
     17      -2.4962      2.00000
     18      -2.4228      2.00000
     19      -2.4202      2.00000
     20      -2.4202      2.00000
     21      -2.3228      2.00000
     22      -1.0514      2.00000
     23      -0.4116      2.00000
     24      -0.3068      2.00000
     25       0.1336      2.00000
     26       0.1336      2.00000
     27       0.1751      2.00000
     28       0.8957      2.00000
     29       0.8957      2.00000
     30       1.3869      2.00000
     31       1.3869      2.00000
     32       1.4047      2.00000
     33       2.5483      2.00000
     34       2.5959      2.00000
     35       2.7928      2.00000
     36       3.0398      2.00000
     37       3.0546      2.00000
     38       3.0546      2.00000
     39       3.2170      2.00000
     40       4.5831      2.00000
     41       4.5831      2.00000
     42       4.6609      2.00000
     43       4.8453      0.00000
     44       6.5567      0.00000
     45       7.4100      0.00000
     46       8.3751      0.00000
     47       8.3751      0.00000
     48       9.4848      0.00000
     49       9.5609      0.00000
     50       9.8134      0.00000
     51       9.8134      0.00000
     52      10.2392      0.00000

[...]

 k-point    51 :      -0.1667    0.3333    0.5000
  band No.  band energies     occupation
      1     -64.3059      2.00000
      2     -64.2512      2.00000
      3     -64.2511      2.00000
      4     -64.2285      2.00000
      5     -64.2284      2.00000
      6     -64.2219      2.00000
      7     -17.5212      2.00000
      8     -17.5171      2.00000
      9     -17.5167      2.00000
     10     -17.4301      2.00000
     11     -17.4248      2.00000
     12      -9.2615      2.00000
     13      -8.7833      2.00000
     14      -8.6561      2.00000
     15      -8.4115      2.00000
     16      -3.3668      2.00000
     17      -2.5403      2.00000
     18      -2.4892      2.00000
     19      -2.3931      2.00000
     20      -2.3413      2.00000
     21      -2.1748      2.00000
     22      -1.1894      2.00000
     23      -0.6786      2.00000
     24      -0.3518      2.00000
     25      -0.0160      2.00000
     26       0.5157      2.00000
     27       0.7403      2.00000
     28       0.8094      2.00000
     29       0.8954      2.00000
     30       1.2739      2.00000
     31       1.4008      2.00000
     32       1.5114      2.00000
     33       2.7118      2.00000
     34       2.7325      2.00000
     35       2.8160      2.00000
     36       2.9228      2.00000
     37       3.1540      2.00000
     38       3.2899      2.00000
     39       3.5367      2.00000
     40       3.6995      2.00000
     41       3.8046      2.00000
     42       4.1476      2.00000
     43       6.0518      0.00000
     44       7.2893      0.00000
     45       7.6274      0.00000
     46       8.1671      0.00000
     47       8.3335      0.00000
     48       9.2656      0.00000
     49       9.4628      0.00000
     50      10.1053      0.00000
     51      10.5082      0.00000
     52      10.6421      0.00000

 soft charge-density along one line, spin component           1
         0         1         2         3         4         5         6         7         8         9
 total charge-density along one line

------------------------ aborting loop because EDIFF is reached ----------------------------------------

 total charge

# of ion     s       p       d       tot
  1        0.237   6.175   8.954  15.366
  2        0.236   6.173   8.954  15.363
  3        0.532   0.471   9.796  10.799
  4        1.104   1.123  10.112  12.339
  5        1.322   2.360   0.000   3.682
  6        1.322   2.360   0.000   3.682
  7        1.322   2.359   0.000   3.682
  8        1.322   2.359   0.000   3.681
tot        7.396  23.380  37.817  68.593

  FORCE on cell =-STRESS in cart. coord.  units (eV):
  Direction    XX          YY          ZZ          XY          YZ          ZX
  Alpha Z   275.46753   275.46753   275.46753
  Ewald   -2394.86127 -2394.86127 -2366.21278     0.00000     0.00000     0.00000
  Hartree  1669.49755  1669.49755  1700.28488     0.00000     0.00016     0.00014
  E(xc)    -488.83767  -488.83767  -488.83733    -0.00001     0.00003     0.00003
  Local    -633.41207  -633.41207  -692.94572     0.00036     0.00053     0.00056
  n-local   139.62446   139.70651   140.20724     0.03624    -0.04291     0.07650
  augment   521.07130   521.07130   520.60604    -0.00005    -0.00300    -0.00300
  Kinetic   908.11747   910.40153   909.27130    -0.03273    -0.18984    -0.38949
  Fock        0.00000     0.00000     0.00000     0.00000     0.00000     0.00000
  Total      -2.14964    -2.14964    -2.15884     0.00000    -0.00000     0.00000
  in kB     -21.49684   -21.49684   -21.58890     0.00000    -0.00000     0.00000

 VOLUME and BASIS-vectors are now :
  energy-cutoff  :      500.00
  volume of cell :      160.21
      direct lattice vectors                 reciprocal lattice vectors
     5.435300000  0.000000000  0.000000000     0.183982485  0.000000000 -0.092196841
     0.000000000  5.435300000  0.000000000     0.000000000  0.183982485 -0.092196841
     2.717650000  2.717650000  5.423179281     0.000000000  0.000000000  0.184393683

  length of vectors
     5.435300000  5.435300000  6.646962958     0.205790700  0.205790700  0.184393683

 FORCES acting on ions
    electron-ion (+dipol)            ewald-force                    non-local-force                 convergence-correction
   -.169E-05 0.114E-05 0.412E-05   0.790E-11 -.246E-11 -.851E-11   -.130E-17 0.173E-17 0.000E+00   -.140E-06 -.210E-06 -.258E-06
   0.218E-05 0.496E-05 0.526E-05   -.763E-11 -.242E-11 0.874E-11   -.867E-18 0.434E-18 0.000E+00   -.210E-06 -.270E-06 -.324E-06
   0.499E-08 -.474E-05 -.200E-05   0.543E-11 -.263E-11 0.605E-11   0.217E-18 -.434E-18 0.000E+00   -.389E-07 0.307E-07 0.310E-08
   0.211E-05 -.236E-05 -.113E-05   -.550E-11 -.257E-11 -.620E-11   0.314E-17 0.101E-16 0.000E+00   -.166E-07 0.228E-07 0.449E-08
   -.632E+02 -.744E+01 0.604E+01   0.613E+02 0.840E+01 -.704E+01   0.156E+01 -.779E+00 0.809E+00   0.677E-03 0.177E-03 -.455E-04
   0.632E+02 0.744E+01 0.604E+01   -.613E+02 -.840E+01 -.704E+01   -.156E+01 0.779E+00 0.809E+00   -.677E-03 -.177E-03 -.455E-04
   0.744E+01 -.632E+02 -.604E+01   -.840E+01 0.613E+02 0.704E+01   0.779E+00 0.156E+01 -.809E+00   -.177E-03 0.677E-03 0.455E-04
   -.744E+01 0.632E+02 -.604E+01   0.840E+01 -.613E+02 0.704E+01   -.779E+00 -.156E+01 -.809E+00   0.177E-03 -.677E-03 0.455E-04
   -.201E-04 -.186E-04 0.105E-04   0.178E-14 -.711E-14 -.133E-13   0.222E-15 0.222E-15 0.000E+00   -.397E-06 -.428E-06 -.602E-06

 POSITION                                       TOTAL-FORCE (eV/Angst)
      0.00000      0.00000      0.00000         0.000000     -0.000000      0.000000
      5.43530      2.71765      2.71159         0.000000     -0.000000      0.000000
      2.71765      2.71765      0.00000         0.000000     -0.000000      0.000000
      2.71765      5.43530      2.71159         0.000000     -0.000000      0.000000
      1.30213      1.38979      1.32105        -0.371928      0.181912     -0.192919
      4.13317      4.04551      1.32105         0.371928     -0.181912     -0.192919
      6.76316      4.01978      4.10213        -0.181912     -0.371928      0.192919
      4.10744      6.85082      4.10213         0.181912      0.371928      0.192919
    total drift:                               -0.000020     -0.000019      0.000010

  FREE ENERGIE OF THE ION-ELECTRON SYSTEM (eV)
  free  energy   TOTEN  =       -35.77049739 eV

  energy  without entropy=      -35.77049739  energy(sigma->0) =      -35.77049739

 writing wavefunctions

 total charge

# of ion     s       p       d       tot
  1        0.237   6.175   8.954  15.366
  2        0.236   6.173   8.954  15.363
  3        0.532   0.471   9.796  10.799
  4        1.104   1.123  10.112  12.339
  5        1.322   2.360   0.000   3.682
  6        1.322   2.360   0.000   3.682
  7        1.322   2.359   0.000   3.682
  8        1.322   2.359   0.000   3.681
tot        7.396  23.380  37.817  68.593