 vasp.5.4.1 24Jun15 (build Nov 25 2015 16:01:35) complex

 executed on         CrayXC-Intel date 2016.05.09  11:25:05

 INCAR:
 POTCAR:    PAW_PBE C 08Apr2002
 POTCAR:    PAW_PBE N 08Apr2002
 POTCAR:    PAW_PBE H 15Jun2001
 POTCAR:    PAW_PBE Pb_d 06Sep2000
 POTCAR:    PAW_PBE I 08Apr2002

 POTCAR:    PAW_PBE C 08Apr2002
   VRHFIN =C: s2p2

   TITEL  = PAW_PBE C 08Apr2002
   POMASS =   12.011; ZVAL   =    4.000    mass and valenz
   ENMAX  =  400.000; ENMIN  =  300.000 eV

 POTCAR:    PAW_PBE N 08Apr2002
   VRHFIN =N: s2p3

[...]

 POTCAR:    PAW_PBE H 15Jun2001
   VRHFIN =H: ultrasoft test

   TITEL  = PAW_PBE H 15Jun2001
   POMASS =    1.000; ZVAL   =    1.000    mass and valenz
   ENMAX  =  250.000; ENMIN  =  200.000 eV

 POTCAR:    PAW_PBE Pb_d 06Sep2000
   VRHFIN =Pb:

   TITEL  = PAW_PBE Pb_d 06Sep2000
   POMASS =  207.200; ZVAL   =   14.000    mass and valenz
   ENMAX  =  237.835; ENMIN  =  178.376 eV

 POTCAR:    PAW_PBE I 08Apr2002
   VRHFIN =I : s2p5

   TITEL  = PAW_PBE I 08Apr2002
   POMASS =  126.904; ZVAL   =    7.000    mass and valenz
   ENMAX  =  175.647; ENMIN  =  131.735 eV

  PAW_PBE C 08Apr2002                   :
  PAW_PBE N 08Apr2002                   :
  PAW_PBE H 15Jun2001                   :
  PAW_PBE Pb_d 06Sep2000                :
  PAW_PBE I 08Apr2002                   :

 POSCAR: MA-Pb-I (Github)
  positions in direct lattice
  velocities in cartesian coordinates
 exchange correlation table for  LEXCH =        8
   RHO(1)=    0.500       N(1)  =     2000
   RHO(2)=  100.500       N(2)  =     4000

 ion  position               nearest neighbor table
   1  0.903  1.000  0.996-   3 1.10   5 1.10   4 1.10   2 1.48
   2  0.137  1.000  0.025-   6 1.04   7 1.04   8 1.05   1 1.48
   3  0.865  1.000  0.826-   1 1.10
   4  0.838  0.144  0.072-   1 1.10
   5  0.838  0.857  0.072-   1 1.10
   6  0.208  0.134  0.958-   2 1.04
   7  0.207  0.865  0.958-   2 1.04
   8  0.182  0.000  0.185-   2 1.05
   9  0.476  0.500  0.476-  12 3.07  10 3.15  11 3.15  11 3.15  10 3.18  12 3.23
  10  0.427  0.500  0.973-   9 3.15   9 3.18
  11  0.436  0.000  0.507-   9 3.15   9 3.15
  12  0.963  0.500  0.448-   9 3.07   9 3.23

  LATTYP: Found a simple monoclinic cell.
 ALAT       =     6.2901201248
 B/A-ratio  =     0.9974197462
 C/A-ratio  =     1.4105278383
 COS(beta)  =    -0.7044835581

  Lattice vectors:

 A1 = (  -6.2901201248,   0.0000000000,   0.0000000000)
 A2 = (  -0.0000776940,  -6.2738900180,   0.0000000000)
 A3 = (   6.2504525538,  -0.0001537931,   6.2969150416)

Analysis of symmetry for initial positions (statically):
 Subroutine PRICEL returns:
 Original cell was already a primitive cell.

 Routine SETGRP: Setting up the symmetry group for a
 simple monoclinic supercell.

 Subroutine GETGRP returns: Found  1 space group operations
 (whereof  1 operations were pure point group operations)
 out of a pool of  4 trial point group operations.

The static configuration has the point symmetry C_1 .

Analysis of symmetry for dynamics (positions and initial velocities):
 Subroutine PRICEL returns:
 Original cell was already a primitive cell.

 Routine SETGRP: Setting up the symmetry group for a
 simple monoclinic supercell.

 Subroutine GETGRP returns: Found  1 space group operations
 (whereof  1 operations were pure point group operations)
 out of a pool of  4 trial point group operations.

The dynamic configuration has the point symmetry C_1 .

 Subroutine INISYM returns: Found  1 space group operations
 (whereof  1 operations are pure point group operations),
 and found     1 'primitive' translations

 KPOINTS: Automatically generated mesh. SCF:112, k
  k-points in reciprocal lattice
Space group operators:
 irot       det(A)        alpha          n_x          n_y          n_z        tau_x        tau_y        tau_z
    1     1.000000     0.000000     1.000000     0.000000     0.000000     0.000000     0.000000     0.000000

 Subroutine IBZKPT_HF returns following result:

 Found    284 k-points in 1st BZ
 the following    284 k-points will be used (e.g. in the exchange kernel)
 Following reciprocal coordinates:   # in IRBZ
  0.000000  0.000000  0.000000    0.00462963   1 t-inv F
  0.166667  0.000000  0.000000    0.00462963   2 t-inv F
  0.333333  0.000000  0.000000    0.00462963   3 t-inv F
  0.500000  0.000000  0.000000    0.00462963   4 t-inv F
  0.000000  0.166667  0.000000    0.00462963   5 t-inv F
  0.166667  0.166667  0.000000    0.00462963   6 t-inv F
  0.333333  0.166667  0.000000    0.00462963   7 t-inv F
  0.500000  0.166667  0.000000    0.00462963   8 t-inv F
 -0.333333  0.166667  0.000000    0.00462963   9 t-inv F
 -0.166667  0.166667  0.000000    0.00462963  10 t-inv F
  0.000000  0.333333  0.000000    0.00462963  11 t-inv F
  0.166667  0.333333  0.000000    0.00462963  12 t-inv F
  0.333333  0.333333  0.000000    0.00462963  13 t-inv F
  0.500000  0.333333  0.000000    0.00462963  14 t-inv F
 -0.333333  0.333333  0.000000    0.00462963  15 t-inv F
 -0.166667  0.333333  0.000000    0.00462963  16 t-inv F
  0.000000  0.500000  0.000000    0.00462963  17 t-inv F
  0.166667  0.500000  0.000000    0.00462963  18 t-inv F
  0.333333  0.500000  0.000000    0.00462963  19 t-inv F
  0.500000  0.500000  0.000000    0.00462963  20 t-inv F
  0.000000  0.000000  0.166667    0.00462963  21 t-inv F
  0.166667  0.000000  0.166667    0.00462963  22 t-inv F
  0.333333  0.000000  0.166667    0.00462963  23 t-inv F
  0.500000  0.000000  0.166667    0.00462963  24 t-inv F
 -0.333333  0.000000  0.166667    0.00462963  25 t-inv F
 -0.166667  0.000000  0.166667    0.00462963  26 t-inv F
  0.000000  0.166667  0.166667    0.00462963  27 t-inv F
  0.166667  0.166667  0.166667    0.00462963  28 t-inv F
  0.333333  0.166667  0.166667    0.00462963  29 t-inv F
  0.500000  0.166667  0.166667    0.00462963  30 t-inv F
 -0.333333  0.166667  0.166667    0.00462963  31 t-inv F
 -0.166667  0.166667  0.166667    0.00462963  32 t-inv F
  0.000000  0.333333  0.166667    0.00462963  33 t-inv F
  0.166667  0.333333  0.166667    0.00462963  34 t-inv F
  0.333333  0.333333  0.166667    0.00462963  35 t-inv F
  0.500000  0.333333  0.166667    0.00462963  36 t-inv F
 -0.333333  0.333333  0.166667    0.00462963  37 t-inv F
 -0.166667  0.333333  0.166667    0.00462963  38 t-inv F
  0.000000  0.500000  0.166667    0.00462963  39 t-inv F
  0.166667  0.500000  0.166667    0.00462963  40 t-inv F
  0.333333  0.500000  0.166667    0.00462963  41 t-inv F
  0.500000  0.500000  0.166667    0.00462963  42 t-inv F
 -0.333333  0.500000  0.166667    0.00462963  43 t-inv F
 -0.166667  0.500000  0.166667    0.00462963  44 t-inv F
  0.000000 -0.333333  0.166667    0.00462963  45 t-inv F
  0.166667 -0.333333  0.166667    0.00462963  46 t-inv F
  0.333333 -0.333333  0.166667    0.00462963  47 t-inv F
  0.500000 -0.333333  0.166667    0.00462963  48 t-inv F
 -0.333333 -0.333333  0.166667    0.00462963  49 t-inv F
 -0.166667 -0.333333  0.166667    0.00462963  50 t-inv F
  0.000000 -0.166667  0.166667    0.00462963  51 t-inv F
  0.166667 -0.166667  0.166667    0.00462963  52 t-inv F
  0.333333 -0.166667  0.166667    0.00462963  53 t-inv F
  0.500000 -0.166667  0.166667    0.00462963  54 t-inv F
 -0.333333 -0.166667  0.166667    0.00462963  55 t-inv F
 -0.166667 -0.166667  0.166667    0.00462963  56 t-inv F
  0.000000  0.000000  0.333333    0.00462963  57 t-inv F
  0.166667  0.000000  0.333333    0.00462963  58 t-inv F
  0.333333  0.000000  0.333333    0.00462963  59 t-inv F
  0.500000  0.000000  0.333333    0.00462963  60 t-inv F
[...]
 -0.333333  0.000000 -0.500000    0.00462963  95 t-inv T
  0.000000 -0.166667 -0.500000    0.00462963  97 t-inv T
 -0.166667 -0.166667 -0.500000    0.00462963  98 t-inv T
 -0.333333 -0.166667 -0.500000    0.00462963  99 t-inv T
 -0.500000 -0.166667 -0.500000    0.00462963 100 t-inv T
  0.333333 -0.166667 -0.500000    0.00462963 101 t-inv T
  0.166667 -0.166667 -0.500000    0.00462963 102 t-inv T
  0.000000 -0.333333 -0.500000    0.00462963 103 t-inv T
 -0.166667 -0.333333 -0.500000    0.00462963 104 t-inv T
 -0.333333 -0.333333 -0.500000    0.00462963 105 t-inv T
 -0.500000 -0.333333 -0.500000    0.00462963 106 t-inv T
  0.333333 -0.333333 -0.500000    0.00462963 107 t-inv T
  0.166667 -0.333333 -0.500000    0.00462963 108 t-inv T
 -0.166667 -0.500000 -0.500000    0.00462963 110 t-inv T
 -0.333333 -0.500000 -0.500000    0.00462963 111 t-inv T

 I would recommend the setting:
   dimension x,y,z NGX =    46 NGY =   46 NGZ =   46
 SYSTEM =  Name
 POSCAR =  MA-Pb-I (Github)

 Startparameter for this run:
   NWRITE =      2    write-flag & timer
   PREC   = accura    normal or accurate (medium, high low for compatibility)
   ISTART =      0    job   : 0-new  1-cont  2-samecut
   ICHARG =      2    charge: 1-file 2-atom 10-const
   ISPIN  =      1    spin polarized calculation?
   LNONCOLLINEAR =      F non collinear calculations
   LSORBIT =      F    spin-orbit coupling
   INIWAV =      1    electr: 0-lowe 1-rand  2-diag
   LASPH  =      F    aspherical Exc in radial PAW
   METAGGA=      F    non-selfconsistent MetaGGA calc.

 Electronic Relaxation 1
   ENCUT  =  500.0 eV  36.75 Ry    6.06 a.u.  11.47 11.44 11.48*2*pi/ulx,y,z
   ENINI  =  500.0     initial cutoff
   ENAUG  =  644.9 eV  augmentation charge cutoff
   NELM   =     60;   NELMIN=  5; NELMDL=  0     # of ELM steps
   EDIFF  = 0.1E-05   stopping-criterion for ELM
   LREAL  =      F    real-space projection
   NLSPLINE    = F    spline interpolate recip. space projectors
   LCOMPAT=      F    compatible to vasp.4.4
   GGA_COMPAT  = T    GGA compatible to vasp.4.4-vasp.4.6
   LMAXPAW     = -100 max onsite density
   LMAXMIX     =    2 max onsite mixed and CHGCAR
   VOSKOWN=      0    Vosko Wilk Nusair interpolation
   ROPT   =    0.00000   0.00000   0.00000   0.00000
   ROPT   =    0.00000
 Ionic relaxation
   EDIFFG = -.5E-02   stopping-criterion for IOM
   NSW    =      0    number of steps for IOM
   NBLOCK =      1;   KBLOCK =      1    inner block; outer block
   IBRION =     -1    ionic relax: 0-MD 1-quasi-New 2-CG
   NFREE  =      1    steps in history (QN), initial steepest desc. (CG)
   ISIF   =      3    stress and relaxation
   IWAVPR =     10    prediction:  0-non 1-charg 2-wave 3-comb
   ISYM   =      2    0-nonsym 1-usesym 2-fastsym
   LCORR  =      T    Harris-Foulkes like correction to forces

   POTIM  = 0.5000    time-step for ionic-motion
   TEIN   =    0.0    initial temperature
   TEBEG  =    0.0;   TEEND  =   0.0 temperature during run
   SMASS  =  -3.00    Nose mass-parameter (am)
   estimated Nose-frequenzy (Omega)   =  0.10E-29 period in steps =****** mass=  -0.904E-27a.u.
   SCALEE = 1.0000    scale energy and forces
   NPACO  =    256;   APACO  = 16.0  distance and # of slots for P.C.
   PSTRESS=    0.0 pullay stress

  Mass of Ions in am
   POMASS =  12.01 14.00  1.00207.20126.90
  Ionic Valenz
   ZVAL   =   4.00  5.00  1.00 14.00  7.00
  Atomic Wigner-Seitz radii
  virtual crystal weights
   VCA    =   1.00  1.00  1.00  1.00  1.00
   NELECT =      50.0000    total number of electrons
   NUPDOWN=      -1.0000    fix difference up-down

 DOS related values:
   EMIN   =  10.00;   EMAX   =-10.00  energy-range for DOS
[...]
 k-point ** :   0.4444 0.5000 0.4444  plane waves:    6249
 k-point ** :   0.4167 0.5000 0.4167  plane waves:    6278
 k-point ** :   0.3889 0.5000 0.3889  plane waves:    6275
 k-point ** :   0.3611 0.5000 0.3611  plane waves:    6294
 k-point ** :   0.3333 0.5000 0.3333  plane waves:    6300
 k-point ** :   0.3056 0.5000 0.3056  plane waves:    6302
 k-point ** :   0.2778 0.5000 0.2778  plane waves:    6306
 k-point ** :   0.2500 0.5000 0.2500  plane waves:    6308
 k-point ** :   0.2222 0.5000 0.2222  plane waves:    6304
 k-point ** :   0.1944 0.5000 0.1944  plane waves:    6296
 k-point ** :   0.1667 0.5000 0.1667  plane waves:    6305
 k-point ** :   0.1389 0.5000 0.1389  plane waves:    6316
 k-point ** :   0.1111 0.5000 0.1111  plane waves:    6323
 k-point ** :   0.0833 0.5000 0.0833  plane waves:    6334
 k-point ** :   0.0556 0.5000 0.0556  plane waves:    6341
 k-point ** :   0.0278 0.5000 0.0278  plane waves:    6356
 k-point ** :   0.0000 0.5000 0.0000  plane waves:    6358
 k-point ** :   0.0385 0.5000 0.0000  plane waves:    6356
 k-point ** :   0.0769 0.5000 0.0000  plane waves:    6346
 k-point ** :   0.1154 0.5000 0.0000  plane waves:    6332
 k-point ** :   0.1538 0.5000 0.0000  plane waves:    6321
 k-point ** :   0.1923 0.5000 0.0000  plane waves:    6306
[...]
 k-point ** :   0.4615 0.5000 0.0000  plane waves:    6278
 k-point ** :   0.5000 0.5000 0.0000  plane waves:    6272
 k-point ** :   0.5000 0.5000 0.0385  plane waves:    6282
 k-point ** :   0.5000 0.5000 0.0769  plane waves:    6290
 k-point ** :   0.5000 0.5000 0.1154  plane waves:    6300
 k-point ** :   0.5000 0.5000 0.1538  plane waves:    6302
 k-point ** :   0.5000 0.5000 0.1923  plane waves:    6305
 k-point ** :   0.5000 0.5000 0.2308  plane waves:    6302
 k-point ** :   0.5000 0.5000 0.2692  plane waves:    6304
 k-point ** :   0.5000 0.5000 0.3077  plane waves:    6290
 k-point ** :   0.5000 0.5000 0.3462  plane waves:    6288
 k-point ** :   0.5000 0.5000 0.3846  plane waves:    6274
 k-point ** :   0.5000 0.5000 0.4231  plane waves:    6272
 k-point ** :   0.5000 0.5000 0.4615  plane waves:    6264
 k-point ** :   0.5000 0.5000 0.5000  plane waves:    6272

 maximum and minimum number of plane-waves per node :      1094     1015

 maximum number of plane-waves:      6358
 maximum index in each direction:
   IXMAX=   11   IYMAX=   11   IZMAX=   11
   IXMIN=  -11   IYMIN=  -11   IZMIN=  -11

 NGX is ok and might be reduce to  46
 NGY is ok and might be reduce to  46
 NGZ is ok and might be reduce to  46

 parallel 3D FFT for wavefunctions:
    minimum data exchange during FFTs selected (reduces bandwidth)
 parallel 3D FFT for charge:
    minimum data exchange during FFTs selected (reduces bandwidth)

 FFT grid for exact exchange (Hartree Fock)
  NGX = 24; NGY = 24; NGZ = 24

 Radii for the augmentation spheres in the non-local exchange
 for species   1 augmentation radius   0.944 (default was   0.699)
       energy cutoff for augmentation   2000.0
 for species   2 augmentation radius   0.957 (default was   0.709)
       energy cutoff for augmentation   2000.0
 for species   3 augmentation radius   0.702 (default was   0.520)
       energy cutoff for augmentation   2000.0
 for species   4 augmentation radius   1.558 (default was   1.154)
       energy cutoff for augmentation   2000.0
 for species   5 augmentation radius   1.603 (default was   1.188)
       energy cutoff for augmentation   2000.0

 real space projection operators:
  max/ min on nodes  :        147.30        115.20

 Maximum index for augmentation-charges in exchange          167
  SETUP_FOCK is finished

 Broyden mixing: mesh for mixing (old mesh)
   NGX = 23   NGY = 23   NGZ = 23
  (NGX  = 96   NGY  = 96   NGZ  = 96)
  gives a total of  12167 points

 initial charge density was supplied:
 charge density of overlapping atoms calculated
 number of electron      50.0000000 magnetization
 charge density for first step will be calculated from the start-wavefunctions

 Maximum index for augmentation-charges         1007 (set IRDMAX)

 First call to EWALD:  gamma=   0.282
 Maximum number of real-space cells 3x 3x 3
 Maximum number of reciprocal cells 3x 3x 3

 FEWALD executed in parallel

----------------------------------------- Iteration    1(   1)  ---------------------------------------

 eigenvalue-minimisations  : 33120
 total energy-change (2. order) : 0.2042586E+04  (-0.1188058E+05)
 number of electron      50.0000000 magnetization
 augmentation part       50.0000000 magnetization

 Free energy of the ion-electron system (eV)
  alpha Z        PSCENC =        46.46595848
  Ewald energy   TEWEN  =     -1941.32201603
  -Hartree energ DENC   =     -1015.77699842
  -exchange      EXHF   =         0.00000000
  -V(xc)+E(xc)   XCENC  =        31.89644362
  PAW double counting   =      2588.52035627    -2506.37953631
  entropy T*S    EENTRO =        -0.00017803
  eigenvalues    EBANDS =      1754.15624085
  atomic energy  EATOM  =      3085.02549808
  free energy    TOTEN  =      2042.58576850 eV

  energy without entropy =     2042.58594653  energy(sigma->0) =     2042.58585752
  exchange ACFDT corr.  =         0.00000000  see jH, gK, PRB 81, 115126

[...]

 eigenvalue-minimisations  : 24984
 total energy-change (2. order) :-0.1569660E+04  (-0.1317780E+04)
 number of electron      50.0000000 magnetization
 augmentation part       50.0000000 magnetization

[...]

----------------------------------------- Iteration    1(  19)  ---------------------------------------

 eigenvalue-minimisations  :     0
 total energy-change (2. order) :-0.4240228E-06  (-0.9972292E-07)
 number of electron      49.9999995 magnetization
 augmentation part        1.1665695 magnetization

 Free energy of the ion-electron system (eV)
  alpha Z        PSCENC =        46.46595848
  Ewald energy   TEWEN  =     -1941.32201603
  -Hartree energ DENC   =     -1054.71906142
  -exchange      EXHF   =        96.12162577
  -V(xc)+E(xc)   XCENC  =        34.93951529
  PAW double counting   =      4497.16004645    -4414.24476983
  entropy T*S    EENTRO =        -0.00000000
  eigenvalues    EBANDS =      -409.30543124
  atomic energy  EATOM  =      3085.02549808
  free energy    TOTEN  =       -59.87863447 eV

  energy without entropy =      -59.87863447  energy(sigma->0) =      -59.87863447
  exchange ACFDT corr.  =        -0.00000000  see jH, gK, PRB 81, 115126

  average scaling for gradient   0.8415

 the core state eigenenergies are
   1-  1s    -49.6763
   2-  1s    -64.9166
   3-
   4-
   5-
   6-
   7-
   8-
   9-  1s    -89.8749  2s    -89.6963  2p    -89.6963  3s    -89.6963  3p    -89.6963
       3d    -89.6963  4s    -89.6963  4p    -89.6963  4d    -89.6963  4f    -89.6963
       5s    -89.6963  5p    -89.6963
  10-  1s    -89.9679  2s    -90.1299  2p    -90.1299  3s    -90.1299  3p    -90.1299
       3d    -90.1299  4s    -90.1299  4p    -90.1299  4d    -90.1299
  11-  1s    -89.9052  2s    -90.0673  2p    -90.0673  3s    -90.0673  3p    -90.0673
       3d    -90.0673  4s    -90.0673  4p    -90.0673  4d    -90.0673
  12-  1s    -89.6039  2s    -89.7547  2p    -89.7547  3s    -89.7547  3p    -89.7547
       3d    -89.7547  4s    -89.7547  4p    -89.7547  4d    -89.7547

 E-fermi :   1.3039     XC(G=0):  -6.3696     alpha+bet : -7.1939

 k-point     1 :       0.0000    0.0000    0.0000
  band No.  band energies     occupation
      1     -20.8447      2.00000
      2     -17.1698      2.00000
      3     -17.1452      2.00000
      4     -17.0972      2.00000
      5     -17.0792      2.00000
      6     -17.0748      2.00000
      7     -13.3012      2.00000
      8     -12.3663      2.00000
      9     -11.5769      2.00000
     10     -11.2836      2.00000
     11      -9.2634      2.00000
     12      -9.0895      2.00000
     13      -7.0437      2.00000
     14      -6.0256      2.00000
     15      -4.7467      2.00000
     16      -4.7301      2.00000
     17      -2.8280      2.00000
     18      -2.8261      2.00000
     19      -2.6560      2.00000
     20      -0.6280      2.00000
     21      -0.6052      2.00000
     22      -0.5259      2.00000
     23      -0.3721      2.00000
     24      -0.1089      2.00000
     25      -0.0943      2.00000
     26       5.5336      0.00000
     27       6.4550      0.00000
     28       6.6150      0.00000
     29       6.8625      0.00000
     30       6.9916      0.00000
     31       7.0129      0.00000
     32       7.8604      0.00000
     33       8.2618      0.00000
     34       8.4419      0.00000
     35       9.1944      0.00000
     36       9.6116      0.00000
     37       9.8184      0.00000
     38       9.9801      0.00000
     39      10.6398      0.00000
     40      10.7524      0.00000
     41      10.9643      0.00000
     42      11.1743      0.00000
     43      11.3086      0.00000
     44      12.3159      0.00000
     45      12.5919      0.00000
     46      12.6361      0.00000
     47      13.1405      0.00000
     48      13.3669      0.00000
     49      13.7816      0.00000
     50      13.7964      0.00000
     51      14.3183      0.00000
     52      14.9831      0.00000

[...]

 k-point   180 :       0.5000    0.5000    0.5000
  band No.  band energies     occupation
      1     -20.8418      2.00000
      2     -17.1503      2.00000
      3     -17.1267      2.00000
      4     -17.0987      2.00000
      5     -17.0808      2.00000
      6     -17.0764      2.00000
      7     -13.3081      2.00000
      8     -11.9230      2.00000
      9     -11.8498      2.00000
     10     -11.4790      2.00000
     11      -9.1749      2.00000
     12      -9.0542      2.00000
     13      -8.0452      2.00000
     14      -7.0320      2.00000
     15      -4.7393      2.00000
     16      -4.7287      2.00000
     17      -1.7251      2.00000
     18      -1.3271      2.00000
     19      -1.2856      2.00000
     20      -0.5016      2.00000
     21      -0.4217      2.00000
     22      -0.1687      2.00000
     23       0.2467      2.00000
     24       0.2534      2.00000
     25       1.2557      2.00000
     26       3.2882      0.00000
     27       3.2932      0.00000
     28       3.5078      0.00000
     29       6.1786      0.00000
     30       7.7663      0.00000
     31       8.2667      0.00000
     32       8.3946      0.00000
     33       8.5675      0.00000
     34       8.9425      0.00000
     35       9.0475      0.00000
     36       9.2189      0.00000
     37       9.6638      0.00000
     38       9.7174      0.00000
     39       9.9762      0.00000
     40      10.4512      0.00000
     41      10.7212      0.00000
     42      11.1741      0.00000
     43      11.4861      0.00000
     44      11.7504      0.00000
     45      12.0790      0.00000
     46      12.8561      0.00000
     47      13.1871      0.00000
     48      13.2204      0.00000
     49      13.2719      0.00000
     50      13.9717      0.00000
     51      14.1859      0.00000
     52      14.3689      0.00000

 soft charge-density along one line, spin component           1
         0         1         2         3         4         5         6         7         8         9
 total charge-density along one line

------------------------ aborting loop because EDIFF is reached ----------------------------------------

 total charge

# of ion     s       p       d       tot
  1        0.844   1.760   0.000   2.604
  2        1.226   2.788   0.000   4.014
  3        0.638   0.046   0.000   0.684
  4        0.637   0.046   0.000   0.683
  5        0.637   0.046   0.000   0.683
  6        0.599   0.080   0.000   0.679
  7        0.599   0.080   0.000   0.679
  8        0.594   0.080   0.000   0.674
  9        1.519   0.477   9.846  11.841
 10        1.504   2.897   0.008   4.409
 11        1.504   2.897   0.008   4.409
 12        1.505   2.885   0.007   4.397
tot       11.806  14.081   9.870  35.756

  FORCE on cell =-STRESS in cart. coord.  units (eV):
  Direction    XX          YY          ZZ          XY          YZ          ZX
  Alpha Z    46.46596    46.46596    46.46596
  Ewald    -631.85511  -642.25523  -667.21442    -0.07437    -0.09326    21.50540
  Hartree   355.18604   357.51433   342.01731    -0.04920    -0.05741    12.72040
  E(xc)    -154.50054  -154.51229  -154.56270    -0.00019     0.00001     0.04915
  Local    -620.76786  -609.60405  -570.45036     0.12510     0.14508   -33.74850
  n-local   534.18164   531.26975   531.20230    -0.00149     0.00002     0.31581
  augment    11.84272    11.81179    11.70400    -0.00009     0.00003     0.01517
  Kinetic   581.37880   580.86822   582.59323     0.00056     0.00439    -0.74602
  Fock            NaN         NaN         NaN         NaN         NaN         NaN
  Total           NaN         NaN         NaN         NaN         NaN         NaN
  in kB           NaN         NaN         NaN         NaN         NaN         NaN

 VOLUME and BASIS-vectors are now :
  energy-cutoff  :      500.00
  volume of cell :      248.50
      direct lattice vectors                 reciprocal lattice vectors
     6.290120125  0.000000000  0.000000000     0.158979476 -0.000001969  0.001001495
     0.000077694  6.273890018  0.000000000     0.000000000  0.159390744  0.000003893
    -0.039667571 -0.000153793  6.296915042     0.000000000  0.000000000  0.158807923

  length of vectors
     6.290120125  6.273890018  6.297039986     0.158982630  0.159390744  0.158807923

 FORCES acting on ions:
    Electron-Ion                     Ewald-Force                    Non-Local-Force
   0.889E+02 -.818E-01 0.171E+02   -.969E+02 0.863E-01 -.179E+02   0.731E+01 -.332E-02 0.825E+00
   -.422E+02 -.768E-02 0.335E+01   0.412E+02 0.321E-02 -.333E+01   0.141E+01 0.129E-02 0.668E-01
   0.171E+02 0.540E-01 0.496E+02   -.184E+02 -.616E-01 -.550E+02   0.135E+01 0.779E-02 0.547E+01
   0.253E+02 -.390E+02 -.177E+02   -.275E+02 0.435E+02 0.200E+02   0.223E+01 -.458E+01 -.241E+01
   0.253E+02 0.389E+02 -.178E+02   -.275E+02 -.434E+02 0.202E+02   0.224E+01 0.457E+01 -.242E+01
   -.271E+02 -.493E+02 0.271E+02   0.300E+02 0.546E+02 -.298E+02   -.297E+01 -.554E+01 0.275E+01
   -.270E+02 0.493E+02 0.270E+02   0.299E+02 -.546E+02 -.296E+02   -.296E+01 0.555E+01 0.273E+01
   -.145E+02 -.753E-01 -.586E+02   0.162E+02 0.820E-01 0.648E+02   -.182E+01 -.679E-02 -.648E+01
   -.317E+02 0.635E-01 -.104E+02   0.304E+02 -.626E-01 0.101E+02   0.114E+01 -.885E-03 0.328E+00
   -.110E+02 0.715E-01 0.416E+01   0.110E+02 -.738E-01 -.408E+01   0.598E-01 0.230E-02 -.780E-01
   -.128E+02 -.220E-01 -.173E+02   0.128E+02 0.215E-01 0.179E+02   0.342E-01 0.441E-03 -.512E+00
   0.167E+01 0.305E-01 -.696E+01   -.112E+01 -.291E-01 0.679E+01   -.550E+00 -.155E-02 0.176E+00
   -.800E+01 0.216E-02 -.499E+00   -.151E-13 -.230E-14 -.133E-13   0.747E+01 -.185E-02 0.455E+00

 POSITION                                       TOTAL-FORCE (eV/Angst)
      5.63915      6.27350      6.27384              NaN           NaN           NaN
      0.85821      6.27280      0.15665              NaN           NaN           NaN
      5.40518      6.27196      5.19958              NaN           NaN           NaN
      5.26698      0.90190      0.45292              NaN           NaN           NaN
      5.26573      5.37368      0.45579              NaN           NaN           NaN
      1.26776      0.84227      6.03329              NaN           NaN           NaN
      1.26657      5.42716      6.03557              NaN           NaN           NaN
      1.13753     -0.00001      1.16715              NaN           NaN           NaN
      2.97634      3.13707      2.99511              NaN           NaN           NaN
      2.64610      3.13606      6.12444              NaN           NaN           NaN
      2.72152      0.00020      3.18965              NaN           NaN           NaN
      6.03902      3.13830      2.81942              NaN           NaN           NaN
    total drift:                                     NaN           NaN           NaN

  FREE ENERGIE OF THE ION-ELECTRON SYSTEM (eV)
  free  energy   TOTEN  =       -59.87863447 eV

  energy  without entropy=      -59.87863447  energy(sigma->0) =      -59.87863447

 writing wavefunctions

 total charge

# of ion     s       p       d       tot
  1        0.844   1.760   0.000   2.604
  2        1.226   2.788   0.000   4.014
  3        0.638   0.046   0.000   0.684
  4        0.637   0.046   0.000   0.683
  5        0.637   0.046   0.000   0.683
  6        0.599   0.080   0.000   0.679
  7        0.599   0.080   0.000   0.679
  8        0.594   0.080   0.000   0.674
  9        1.519   0.477   9.846  11.841
 10        1.504   2.897   0.008   4.409
 11        1.504   2.897   0.008   4.409
 12        1.505   2.885   0.007   4.397
tot       11.806  14.081   9.870  35.756