 vasp.5.4.1 24Jun15 (build Nov 25 2015 16:01:35) complex

 executed on         CrayXC-Intel date 2016.06.01  18:09:30

 INCAR:
 POTCAR:   PAW Si 02Apr1999

 POTCAR:   PAW Si 02Apr1999
   VRHFIN =Si: s2p2

   TITEL  = PAW Si 02Apr1999
   POMASS =   28.085; ZVAL   =    4.000    mass and valenz
   ENMAX  =  245.704; ENMIN  =  184.278 eV
   QCUT   =   -4.250; QGAM   =    8.499    optimization parameters

   Description
     l     E      TYP  RCUT    TYP  RCUT
     0   .000     23  1.900
     0   .000     23  1.900
     1   .000     23  1.900
     1   .000     23  1.900
     2   .000      7  1.900

 PAW Si 02Apr1999                       :

 POSCAR: Si (Madelung Handbook, 295.7K)
  positions in direct lattice
  velocities in cartesian coordinates
 exchange correlation table for  LEXCH =        2
   RHO(1)=    0.500       N(1)  =     2000
   RHO(2)=  100.500       N(2)  =     4000

 ion  position               nearest neighbor table
   1  0.000  0.000  0.000-   2 2.35   2 2.35   2 2.35   2 2.35
   2  0.250  0.250  0.250-   1 2.35   1 2.35   1 2.35   1 2.35

  LATTYP: Found a face centered cubic cell.
 ALAT       =     5.4310000000

  Lattice vectors:

 A1 = (   2.7155000000,   2.7155000000,   0.0000000000)
 A2 = (   2.7155000000,   0.0000000000,  -2.7155000000)
 A3 = (   0.0000000000,   2.7155000000,  -2.7155000000)

Analysis of symmetry for initial positions (statically):
 Subroutine PRICEL returns:
 Original cell was already a primitive cell.

 Routine SETGRP: Setting up the symmetry group for a
 face centered cubic supercell.

 Subroutine GETGRP returns: Found 48 space group operations
 (whereof 24 operations were pure point group operations)
 out of a pool of 48 trial point group operations.

The static configuration has the point symmetry T_d .
 The point group associated with its full space group is O_h .

Analysis of symmetry for dynamics (positions and initial velocities):
 Subroutine PRICEL returns:
 Original cell was already a primitive cell.

 Routine SETGRP: Setting up the symmetry group for a
 face centered cubic supercell.

 Subroutine GETGRP returns: Found 48 space group operations
 (whereof 24 operations were pure point group operations)
 out of a pool of 48 trial point group operations.

The dynamic configuration has the point symmetry T_d .
 The point group associated with its full space group is O_h .

 Subroutine INISYM returns: Found 48 space group operations
 (whereof 24 operations are pure point group operations),
 and found     1 'primitive' translations

 KPOINTS: Automatically generated mesh: SCF=15, 0.
  k-points in reciprocal lattice
Space group operators:
 irot       det(A)        alpha          n_x          n_y          n_z        tau_x        tau_y        tau_z
    1     1.000000     0.000001     1.000000     0.000000     0.000000     0.000000     0.000000     0.000000
    2     1.000000   120.000000    -0.577350    -0.577350     0.577350     0.000000     0.000000     0.000000
    3     1.000000   120.000000     0.577350     0.577350    -0.577350     0.000000     0.000000     0.000000
    4    -1.000000    90.000000    -1.000000     0.000000     0.000000     0.000000     0.000000     0.000000
    5    -1.000000   180.000000     0.707107     0.707107     0.000000     0.000000     0.000000     0.000000
    6    -1.000000    90.000000     0.000000     1.000000     0.000000     0.000000     0.000000     0.000000
    7     1.000000   180.000000     1.000000     0.000000     0.000000     0.000000     0.000000     0.000000
    8     1.000000   120.000000     0.577350     0.577350     0.577350     0.000000     0.000000     0.000000
    9     1.000000   120.000000    -0.577350     0.577350     0.577350     0.000000     0.000000     0.000000
   10    -1.000000    90.000000     1.000000     0.000000     0.000000     0.000000     0.000000     0.000000
   11    -1.000000    90.000000     0.000000     0.000000     1.000000     0.000000     0.000000     0.000000
   12    -1.000000   180.000000     0.707107     0.000000    -0.707107     0.000000     0.000000     0.000000
   13     1.000000   120.000000     0.577350    -0.577350    -0.577350     0.000000     0.000000     0.000000
   14     1.000000   120.000000     0.577350    -0.577350     0.577350     0.000000     0.000000     0.000000
   15     1.000000   180.000000     0.000000     0.000000     1.000000     0.000000     0.000000     0.000000
   16    -1.000000    90.000000     0.000000    -1.000000     0.000000     0.000000     0.000000     0.000000
   17    -1.000000   180.000000     0.000000    -0.707107     0.707107     0.000000     0.000000     0.000000
   18    -1.000000    90.000000     0.000000     0.000000    -1.000000     0.000000     0.000000     0.000000
   19     1.000000   120.000000    -0.577350    -0.577350    -0.577350     0.000000     0.000000     0.000000
   20     1.000000   180.000000     0.000000     1.000000     0.000000     0.000000     0.000000     0.000000
   21     1.000000   120.000000    -0.577350     0.577350    -0.577350     0.000000     0.000000     0.000000
   22    -1.000000   180.000000     0.707107    -0.707107     0.000000     0.000000     0.000000     0.000000
   23    -1.000000   180.000000     0.000000     0.707107     0.707107     0.000000     0.000000     0.000000
   24    -1.000000   180.000000     0.707107     0.000000     0.707107     0.000000     0.000000     0.000000
   25    -1.000000     0.000001     1.000000     0.000000     0.000000     0.250000     0.250000     0.250000
   26    -1.000000   120.000000    -0.577350    -0.577350     0.577350     0.250000     0.250000     0.250000
   27    -1.000000   120.000000     0.577350     0.577350    -0.577350     0.250000     0.250000     0.250000
   28     1.000000    90.000000    -1.000000     0.000000     0.000000     0.250000     0.250000     0.250000
   29     1.000000   180.000000     0.707107     0.707107     0.000000     0.250000     0.250000     0.250000
   30     1.000000    90.000000     0.000000     1.000000     0.000000     0.250000     0.250000     0.250000
   31    -1.000000   180.000000     1.000000     0.000000     0.000000     0.250000     0.250000     0.250000
   32    -1.000000   120.000000     0.577350     0.577350     0.577350     0.250000     0.250000     0.250000
   33    -1.000000   120.000000    -0.577350     0.577350     0.577350     0.250000     0.250000     0.250000
   34     1.000000    90.000000     1.000000     0.000000     0.000000     0.250000     0.250000     0.250000
   35     1.000000    90.000000     0.000000     0.000000     1.000000     0.250000     0.250000     0.250000
   36     1.000000   180.000000     0.707107     0.000000    -0.707107     0.250000     0.250000     0.250000
   37    -1.000000   120.000000     0.577350    -0.577350    -0.577350     0.250000     0.250000     0.250000
   38    -1.000000   120.000000     0.577350    -0.577350     0.577350     0.250000     0.250000     0.250000
   39    -1.000000   180.000000     0.000000     0.000000     1.000000     0.250000     0.250000     0.250000
   40     1.000000    90.000000     0.000000    -1.000000     0.000000     0.250000     0.250000     0.250000
   41     1.000000   180.000000     0.000000    -0.707107     0.707107     0.250000     0.250000     0.250000
   42     1.000000    90.000000     0.000000     0.000000    -1.000000     0.250000     0.250000     0.250000
   43    -1.000000   120.000000    -0.577350    -0.577350    -0.577350     0.250000     0.250000     0.250000
   44    -1.000000   180.000000     0.000000     1.000000     0.000000     0.250000     0.250000     0.250000
   45    -1.000000   120.000000    -0.577350     0.577350    -0.577350     0.250000     0.250000     0.250000
   46     1.000000   180.000000     0.707107    -0.707107     0.000000     0.250000     0.250000     0.250000
   47     1.000000   180.000000     0.000000     0.707107     0.707107     0.250000     0.250000     0.250000
   48     1.000000   180.000000     0.707107     0.000000     0.707107     0.250000     0.250000     0.250000

 I would recommend the setting:
   dimension x,y,z NGX =    28 NGY =   28 NGZ =   28
 SYSTEM =  Name
 POSCAR =  Si (Madelung Handbook, 295.7K)

 Startparameter for this run:
   NWRITE =      2    write-flag & timer
   PREC   = accura    normal or accurate (medium, high low for compatibility)
   ISTART =      0    job   : 0-new  1-cont  2-samecut
   ICHARG =     11    charge: 1-file 2-atom 10-const
   ISPIN  =      1    spin polarized calculation?
   LNONCOLLINEAR =      F non collinear calculations
   LSORBIT =      F    spin-orbit coupling
   INIWAV =      1    electr: 0-lowe 1-rand  2-diag
   LASPH  =      F    aspherical Exc in radial PAW
   METAGGA=      F    non-selfconsistent MetaGGA calc.

 Electronic Relaxation 1
   ENCUT  =  500.0 eV  36.75 Ry    6.06 a.u.   7.00  7.00  7.00*2*pi/ulx,y,z
   ENINI  =  500.0     initial cutoff
   ENAUG  =  322.1 eV  augmentation charge cutoff
   NELM   =     60;   NELMIN=  2; NELMDL=  0     # of ELM steps
   EDIFF  = 0.1E-05   stopping-criterion for ELM
   LREAL  =      F    real-space projection
   NLSPLINE    = F    spline interpolate recip. space projectors
   LCOMPAT=      F    compatible to vasp.4.4
   GGA_COMPAT  = T    GGA compatible to vasp.4.4-vasp.4.6
   LMAXPAW     = -100 max onsite density
   LMAXMIX     =    2 max onsite mixed and CHGCAR
   VOSKOWN=      0    Vosko Wilk Nusair interpolation
   ROPT   =    0.00000
 Ionic relaxation
   EDIFFG = -.5E-02   stopping-criterion for IOM
   NSW    =      1    number of steps for IOM
   NBLOCK =      1;   KBLOCK =      1    inner block; outer block
   IBRION =      2    ionic relax: 0-MD 1-quasi-New 2-CG
   NFREE  =      1    steps in history (QN), initial steepest desc. (CG)
   ISIF   =      3    stress and relaxation
   IWAVPR =     11    prediction:  0-non 1-charg 2-wave 3-comb
   ISYM   =      2    0-nonsym 1-usesym 2-fastsym
   LCORR  =      T    Harris-Foulkes like correction to forces

   POTIM  = 0.5000    time-step for ionic-motion
   TEIN   =    0.0    initial temperature
   TEBEG  =    0.0;   TEEND  =   0.0 temperature during run
   SMASS  =  -3.00    Nose mass-parameter (am)
   estimated Nose-frequenzy (Omega)   =  0.10E-29 period in steps =****** mass=  -0.337E-27a.u.
   SCALEE = 1.0000    scale energy and forces
   NPACO  =    256;   APACO  = 16.0  distance and # of slots for P.C.
   PSTRESS=    0.0 pullay stress

  Mass of Ions in am
   POMASS =  28.09
  Ionic Valenz
   ZVAL   =   4.00
  Atomic Wigner-Seitz radii
  virtual crystal weights
   VCA    =   1.00
   NELECT =       8.0000    total number of electrons
   NUPDOWN=      -1.0000    fix difference up-down

 DOS related values:
   EMIN   =  10.00;   EMAX   =-10.00  energy-range for DOS
   EFERMI =   0.00
   ISMEAR =     0;   SIGMA  =   0.01  broadening in eV -4-tet -1-fermi 0-gaus

 Electronic relaxation 2 (details)
   IALGO  =     38    algorithm
   LDIAG  =      T    sub-space diagonalisation (order eigenvalues)
   LSUBROT=      F    optimize rotation matrix (better conditioning)
   TURBO    =      0    0=normal 1=particle mesh
   IRESTART =      0    0=no restart 2=restart with 2 vectors
   NREBOOT  =      0    no. of reboots
[...]
   0.49567720  0.49567720  0.49567720       0.000
   0.49711815  0.49711815  0.49711815       0.000
   0.49855906  0.49855906  0.49855906       0.000
   0.50000000  0.50000000  0.50000000       0.000

 position of ions in fractional coordinates (direct lattice)
   0.00000000  0.00000000  0.00000000
   0.25000000  0.25000000  0.25000000

 position of ions in cartesian coordinates  (Angst):
   0.00000000  0.00000000  0.00000000
   1.35775000  1.35775000 -1.35775000

 k-point  1 :   0.0000 0.0000 0.0000  plane waves:     965
 k-point  2 :   0.1667 0.0000 0.0000  plane waves:     989
 k-point  3 :   0.3333 0.0000 0.0000  plane waves:    1008
 k-point  4 :   0.5000 0.0000 0.0000  plane waves:    1008
 k-point  5 :   0.1667 0.1667 0.0000  plane waves:     998
 k-point  6 :   0.3333 0.1667 0.0000  plane waves:    1011
 k-point  7 :   0.5000 0.1667 0.0000  plane waves:    1017
 k-point  8 :  -0.3333 0.1667 0.0000  plane waves:    1019
 k-point  9 :  -0.1667 0.1667 0.0000  plane waves:    1013
 k-point 10 :   0.3333 0.3333 0.0000  plane waves:    1018
 k-point 11 :   0.5000 0.3333 0.0000  plane waves:    1012
 k-point 12 :  -0.3333 0.3333 0.0000  plane waves:    1015
 k-point 13 :   0.5000 0.5000 0.0000  plane waves:    1034
 k-point 14 :   0.5000 0.3333 0.1667  plane waves:    1032
 k-point 15 :  -0.3333 0.3333 0.1667  plane waves:    1020
 k-point 16 :   0.0000 0.0000 0.0000  plane waves:     965
 k-point 17 :   0.0018 0.0000 0.0018  plane waves:     965
 k-point 18 :   0.0035 0.0000 0.0035  plane waves:     965
 k-point 19 :   0.0053 0.0000 0.0053  plane waves:     965
 k-point 20 :   0.0070 0.0000 0.0070  plane waves:     965
 k-point 21 :   0.0088 0.0000 0.0088  plane waves:     965
 k-point 22 :   0.0106 0.0000 0.0106  plane waves:     965
 k-point 23 :   0.0123 0.0000 0.0123  plane waves:     965
 k-point 24 :   0.0141 0.0000 0.0141  plane waves:     965
 k-point 25 :   0.0158 0.0000 0.0158  plane waves:     965
 k-point 26 :   0.0176 0.0000 0.0176  plane waves:     965
 k-point 27 :   0.0194 0.0000 0.0194  plane waves:     965
 k-point 28 :   0.0211 0.0000 0.0211  plane waves:     965
 k-point 29 :   0.0229 0.0000 0.0229  plane waves:     965
 k-point 30 :   0.0246 0.0000 0.0246  plane waves:     965
 k-point 31 :   0.0264 0.0000 0.0264  plane waves:     965
 k-point 32 :   0.0282 0.0000 0.0282  plane waves:     969
 k-point 33 :   0.0299 0.0000 0.0299  plane waves:     969
 k-point 34 :   0.0317 0.0000 0.0317  plane waves:     969
 k-point 35 :   0.0335 0.0000 0.0335  plane waves:     969
 k-point 36 :   0.0352 0.0000 0.0352  plane waves:     981
 k-point 37 :   0.0370 0.0000 0.0370  plane waves:     981
 k-point 38 :   0.0387 0.0000 0.0387  plane waves:     981
 k-point 39 :   0.0405 0.0000 0.0405  plane waves:     981
 k-point 40 :   0.0423 0.0000 0.0423  plane waves:     981
 k-point 41 :   0.0440 0.0000 0.0440  plane waves:     981
 k-point 42 :   0.0458 0.0000 0.0458  plane waves:     981
 k-point 43 :   0.0475 0.0000 0.0475  plane waves:     981
 k-point 44 :   0.0493 0.0000 0.0493  plane waves:     990
 k-point 45 :   0.0511 0.0000 0.0511  plane waves:     990
 k-point 46 :   0.0528 0.0000 0.0528  plane waves:     990
 k-point 47 :   0.0546 0.0000 0.0546  plane waves:     990
 k-point 48 :   0.0563 0.0000 0.0563  plane waves:     990
 k-point 49 :   0.0581 0.0000 0.0581  plane waves:     990
 k-point 50 :   0.0599 0.0000 0.0599  plane waves:     990
 k-point 51 :   0.0616 0.0000 0.0616  plane waves:     994
 k-point 52 :   0.0634 0.0000 0.0634  plane waves:     994
 k-point 53 :   0.0651 0.0000 0.0651  plane waves:     990
 k-point 54 :   0.0669 0.0000 0.0669  plane waves:     990
 k-point 55 :   0.0687 0.0000 0.0687  plane waves:     990
 k-point 56 :   0.0704 0.0000 0.0704  plane waves:     990
 k-point 57 :   0.0722 0.0000 0.0722  plane waves:     990
 k-point 58 :   0.0739 0.0000 0.0739  plane waves:     990
 k-point 59 :   0.0757 0.0000 0.0757  plane waves:     990
 k-point 60 :   0.0775 0.0000 0.0775  plane waves:     990
[...]
 k-point 85 :   0.1215 0.0000 0.1215  plane waves:    1002
 k-point 86 :   0.1232 0.0000 0.1232  plane waves:    1002
 k-point 87 :   0.1250 0.0000 0.1250  plane waves:     994
 k-point 88 :   0.1268 0.0000 0.1268  plane waves:     994
 k-point 89 :   0.1285 0.0000 0.1285  plane waves:     994
 k-point 90 :   0.1303 0.0000 0.1303  plane waves:     994
 k-point 91 :   0.1320 0.0000 0.1320  plane waves:     994
 k-point 92 :   0.1338 0.0000 0.1338  plane waves:     994
 k-point 93 :   0.1356 0.0000 0.1356  plane waves:     994
 k-point 94 :   0.1373 0.0000 0.1373  plane waves:     994
 k-point 95 :   0.1391 0.0000 0.1391  plane waves:     994
 k-point 96 :   0.1408 0.0000 0.1408  plane waves:     994
 k-point 97 :   0.1426 0.0000 0.1426  plane waves:     994
 k-point 98 :   0.1444 0.0000 0.1444  plane waves:     994
 k-point 99 :   0.1461 0.0000 0.1461  plane waves:     994
 k-point ** :   0.1479 0.0000 0.1479  plane waves:     994
 k-point ** :   0.1496 0.0000 0.1496  plane waves:     994
 k-point ** :   0.1514 0.0000 0.1514  plane waves:     998
 k-point ** :   0.1532 0.0000 0.1532  plane waves:     998
 k-point ** :   0.1549 0.0000 0.1549  plane waves:     998
 k-point ** :   0.1567 0.0000 0.1567  plane waves:     998
 k-point ** :   0.1585 0.0000 0.1585  plane waves:     998
 k-point ** :   0.1602 0.0000 0.1602  plane waves:     998
 k-point ** :   0.1620 0.0000 0.1620  plane waves:     998
 k-point ** :   0.1637 0.0000 0.1637  plane waves:     998
 k-point ** :   0.1655 0.0000 0.1655  plane waves:     998
 k-point ** :   0.1673 0.0000 0.1673  plane waves:     998
 k-point ** :   0.1690 0.0000 0.1690  plane waves:     998
 k-point ** :   0.1708 0.0000 0.1708  plane waves:     998
 k-point ** :   0.1725 0.0000 0.1725  plane waves:     998
 k-point ** :   0.1743 0.0000 0.1743  plane waves:     998
 k-point ** :   0.1761 0.0000 0.1761  plane waves:     998
 k-point ** :   0.1778 0.0000 0.1778  plane waves:     998
 k-point ** :   0.1796 0.0000 0.1796  plane waves:     998
 k-point ** :   0.1813 0.0000 0.1813  plane waves:     998
 k-point ** :   0.1831 0.0000 0.1831  plane waves:     998
 k-point ** :   0.1849 0.0000 0.1849  plane waves:     998
 k-point ** :   0.1866 0.0000 0.1866  plane waves:     998
 k-point ** :   0.1884 0.0000 0.1884  plane waves:     998
 k-point ** :   0.1901 0.0000 0.1901  plane waves:     998
 k-point ** :   0.1919 0.0000 0.1919  plane waves:     998
 k-point ** :   0.1937 0.0000 0.1937  plane waves:     998
 k-point ** :   0.1954 0.0000 0.1954  plane waves:     998
 k-point ** :   0.1972 0.0000 0.1972  plane waves:     998
 k-point ** :   0.1989 0.0000 0.1989  plane waves:     998
 k-point ** :   0.2007 0.0000 0.2007  plane waves:     998
 k-point ** :   0.2025 0.0000 0.2025  plane waves:     998
 k-point ** :   0.2042 0.0000 0.2042  plane waves:     998
 k-point ** :   0.2060 0.0000 0.2060  plane waves:     998
 k-point ** :   0.2077 0.0000 0.2077  plane waves:     998
 k-point ** :   0.2095 0.0000 0.2095  plane waves:     998
 k-point ** :   0.2113 0.0000 0.2113  plane waves:     998
 k-point ** :   0.2130 0.0000 0.2130  plane waves:     998
 k-point ** :   0.2148 0.0000 0.2148  plane waves:     998
 k-point ** :   0.2165 0.0000 0.2165  plane waves:     998
 k-point ** :   0.2183 0.0000 0.2183  plane waves:     998
 k-point ** :   0.2201 0.0000 0.2201  plane waves:     998
 k-point ** :   0.2218 0.0000 0.2218  plane waves:     998
 k-point ** :   0.2236 0.0000 0.2236  plane waves:     998
 k-point ** :   0.2254 0.0000 0.2254  plane waves:     998
 k-point ** :   0.2271 0.0000 0.2271  plane waves:     998
 k-point ** :   0.2289 0.0000 0.2289  plane waves:     998
 k-point ** :   0.2306 0.0000 0.2306  plane waves:     998
 k-point ** :   0.2324 0.0000 0.2324  plane waves:     998
 k-point ** :   0.2342 0.0000 0.2342  plane waves:     998
 k-point ** :   0.2359 0.0000 0.2359  plane waves:     998
 k-point ** :   0.2377 0.0000 0.2377  plane waves:     998
 k-point ** :   0.2394 0.0000 0.2394  plane waves:     998
 k-point ** :   0.2412 0.0000 0.2412  plane waves:     998
 k-point ** :   0.2430 0.0000 0.2430  plane waves:     998
 k-point ** :   0.2447 0.0000 0.2447  plane waves:     998
 k-point ** :   0.2465 0.0000 0.2465  plane waves:     998
 k-point ** :   0.2482 0.0000 0.2482  plane waves:     998
 k-point ** :   0.2500 0.0000 0.2500  plane waves:     998
 k-point ** :   0.2518 0.0000 0.2518  plane waves:     998
[...]
 k-point ** :   0.4798 0.4798 0.4798  plane waves:    1008
 k-point ** :   0.4813 0.4813 0.4813  plane waves:    1008
 k-point ** :   0.4827 0.4827 0.4827  plane waves:    1008
 k-point ** :   0.4841 0.4841 0.4841  plane waves:    1008
 k-point ** :   0.4856 0.4856 0.4856  plane waves:    1008
 k-point ** :   0.4870 0.4870 0.4870  plane waves:    1008
 k-point ** :   0.4885 0.4885 0.4885  plane waves:    1008
 k-point ** :   0.4899 0.4899 0.4899  plane waves:    1008
 k-point ** :   0.4914 0.4914 0.4914  plane waves:    1008
 k-point ** :   0.4928 0.4928 0.4928  plane waves:    1008
 k-point ** :   0.4942 0.4942 0.4942  plane waves:    1008
 k-point ** :   0.4957 0.4957 0.4957  plane waves:    1008
 k-point ** :   0.4971 0.4971 0.4971  plane waves:    1008
 k-point ** :   0.4986 0.4986 0.4986  plane waves:    1008
 k-point ** :   0.5000 0.5000 0.5000  plane waves:    1008

 maximum and minimum number of plane-waves per node :       183      148

 maximum number of plane-waves:      1034
 maximum index in each direction:
   IXMAX=    7   IYMAX=    7   IZMAX=    7
   IXMIN=   -7   IYMIN=   -7   IZMIN=   -7

 WARNING: aliasing errors must be expected set NGX to  30 to avoid them
 WARNING: aliasing errors must be expected set NGY to  30 to avoid them
 WARNING: aliasing errors must be expected set NGZ to  30 to avoid them
 aliasing errors are usually negligible using standard VASP settings
 and one can safely disregard these warnings

 parallel 3D FFT for wavefunctions:
    minimum data exchange during FFTs selected (reduces bandwidth)
 parallel 3D FFT for charge:
    minimum data exchange during FFTs selected (reduces bandwidth)

 initial charge density was supplied:
 number of electron       8.0000001 magnetization
 keeping initial charge density in first step

 Maximum index for augmentation-charges         1360 (set IRDMAX)

 First call to EWALD:  gamma=   0.518
 Maximum number of real-space cells 3x 3x 3
 Maximum number of reciprocal cells 3x 3x 3

 FEWALD executed in parallel

----------------------------------------- Iteration    1(   1)  ---------------------------------------

 eigenvalue-minimisations  : 19256
 total energy-change (2. order) : 0.6483734E+01  (-0.3160422E+03)
 number of electron       8.0000001 magnetization
 augmentation part        8.0000001 magnetization

 Free energy of the ion-electron system (eV)
  alpha Z        PSCENC =         2.36771343
  Ewald energy   TEWEN  =      -228.52143995
  -Hartree energ DENC   =       -14.91421964
  -exchange      EXHF   =         0.00000000
  -V(xc)+E(xc)   XCENC  =       -17.96442577
  PAW double counting   =        75.27329546      -40.66766249
  entropy T*S    EENTRO =        -0.00017624
  eigenvalues    EBANDS =        24.04431576
  atomic energy  EATOM  =       206.86633348
  Solvation  Ediel_sol  =         0.00000000
  free energy    TOTEN  =         6.48373404 eV

  energy without entropy =        6.48391028  energy(sigma->0) =        6.48382216

[...]

 eigenvalue-minimisations  : 30272
 total energy-change (2. order) :-0.1785059E+02  (-0.1770421E+02)
 number of electron       8.0000001 magnetization
 augmentation part        8.0000001 magnetization

[...]

----------------------------------------- Iteration    1(   6)  ---------------------------------------

 eigenvalue-minimisations  : 31720
 total energy-change (2. order) :-0.8208588E-08  (-0.8208645E-08)
 number of electron       8.0000001 magnetization
 augmentation part        8.0000001 magnetization

 Free energy of the ion-electron system (eV)
  alpha Z        PSCENC =         2.36771343
  Ewald energy   TEWEN  =      -228.52143995
  -Hartree energ DENC   =       -14.91421964
  -exchange      EXHF   =         0.00000000
  -V(xc)+E(xc)   XCENC  =       -17.96442577
  PAW double counting   =        75.27329546      -40.66766249
  entropy T*S    EENTRO =        -0.00000000
  eigenvalues    EBANDS =         5.95632848
  atomic energy  EATOM  =       206.86633348
  Solvation  Ediel_sol  =         0.00000000
  free energy    TOTEN  =       -11.60407700 eV

  energy without entropy =      -11.60407700  energy(sigma->0) =      -11.60407700

 the core state eigenenergies are
   1-  1s  -1763.7158  2s   -126.8064  2p    -83.6532
   2-  1s  -1763.7158  2s   -126.8064  2p    -83.6532

 E-fermi :   5.8746     XC(G=0):  -9.6022     alpha+bet :-12.0860

 k-point     1 :       0.0000    0.0000    0.0000
  band No.  band energies     occupation
      1      -6.1818      2.00000
      2       5.7767      2.00000
      3       5.7767      2.00000
      4       5.7767      2.00000
      5       8.2967      0.00000
      6       8.2967      0.00000
      7       8.2967      0.00000
      8       8.9835      0.00000

[...]

 k-point  1202 :       0.5000    0.5000    0.5000
  band No.  band energies     occupation
      1      -3.8429      2.00000
      2      -1.2158      2.00000
      3       4.5809      2.00000
      4       4.5809      2.00000
      5       7.2023      0.00000
      6       9.0638      0.00000
      7       9.0638      0.00000
      8      13.2838      0.00000

 soft charge-density along one line, spin component           1
         0         1         2         3         4         5         6         7         8         9
 total charge-density along one line

------------------------ aborting loop because EDIFF is reached ----------------------------------------

 total charge

# of ion     s       p       d       tot
  1        0.752   0.957   0.000   1.709
  2        0.752   0.957   0.000   1.709
tot        1.504   1.913   0.000   3.417

  FORCE on cell =-STRESS in cart. coord.  units (eV):
  Direction    XX          YY          ZZ          XY          YZ          ZX
  Alpha Z     2.36771     2.36771     2.36771
  Ewald     -76.17385   -76.17385   -76.17385     0.00000     0.00000    -0.00000
  Hartree     5.02913     5.02913     5.02913     0.00000    -0.00000    -0.00000
  E(xc)     -25.95274   -25.95274   -25.95274    -0.00000     0.00000     0.00000
  Local     -30.65647   -30.65647   -30.65647     0.00001    -0.00001    -0.00001
  n-local    76.60510    82.56201    81.76108    -1.19414    -2.67699    -0.77691
  augment   -12.49287   -12.49287   -12.49287    -0.00001     0.00001     0.00001
  Kinetic    55.69959    57.65130    59.30500    -0.96127    -3.76950    -0.97046
  Fock        0.00000     0.00000     0.00000     0.00000     0.00000     0.00000
  Total      -0.01772    -0.01772    -0.01772    -0.00000     0.00000    -0.00000
  in kB      -0.70908    -0.70908    -0.70908    -0.00000     0.00000    -0.00000

 VOLUME and BASIS-vectors are now :
  energy-cutoff  :      500.00
  volume of cell :       40.05
      direct lattice vectors                 reciprocal lattice vectors
     2.715500000  2.715500000  0.000000000     0.184128153  0.184128153  0.184128153
     2.715500000  0.000000000 -2.715500000     0.184128153 -0.184128153 -0.184128153
     0.000000000  2.715500000 -2.715500000    -0.184128153  0.184128153 -0.184128153

  length of vectors
     3.840296929  3.840296929  3.840296929     0.318919316  0.318919316  0.318919316

 FORCES acting on ions
    electron-ion (+dipol)            ewald-force                    non-local-force                 convergence-correction
   -.809E-08 -.448E-08 0.449E-08   -.923E-14 -.515E-14 0.930E-14   -.163E-15 -.160E-15 0.139E-15   -.187E-09 -.187E-09 0.187E-09
   0.809E-08 0.449E-08 -.449E-08   0.907E-14 0.563E-14 -.939E-14   0.170E-15 0.173E-15 -.153E-15   0.187E-09 0.187E-09 -.187E-09
   -.190E-13 0.487E-13 -.119E-12   -.164E-15 0.474E-15 -.970E-16   0.694E-17 0.139E-16 -.139E-16   0.459E-14 0.136E-14 0.550E-14

 POSITION                                       TOTAL-FORCE (eV/Angst)
      0.00000      0.00000      0.00000        -0.000000     -0.000000      0.000000
      1.35775      1.35775     -1.35775         0.000000      0.000000     -0.000000
    total drift:                               -0.000000      0.000000     -0.000000

  FREE ENERGIE OF THE ION-ELECTRON SYSTEM (eV)
  free  energy   TOTEN  =       -11.60407700 eV

  energy  without entropy=      -11.60407700  energy(sigma->0) =      -11.60407700

 writing wavefunctions

 total charge

# of ion     s       p       d       tot
  1        0.752   0.957   0.000   1.709
  2        0.752   0.957   0.000   1.709
tot        1.504   1.913   0.000   3.417