 vasp.5.4.1 24Jun15 (build Nov 25 2015 16:01:35) complex

 executed on         CrayXC-Intel date 2016.09.08  17:45:30

 INCAR:
 POTCAR:    PAW_PBE Cd 06Sep2000
 POTCAR:    PAW_PBE Te 08Apr2002

 POTCAR:    PAW_PBE Cd 06Sep2000
   VRHFIN =Cd : s2 d10

   TITEL  = PAW_PBE Cd 06Sep2000
   POMASS =  112.411; ZVAL   =   12.000    mass and valenz
   ENMAX  =  274.336; ENMIN  =  205.752 eV

 POTCAR:    PAW_PBE Te 08Apr2002
   VRHFIN =Te: s2p4

   TITEL  = PAW_PBE Te 08Apr2002
   POMASS =  127.600; ZVAL   =    6.000    mass and valenz
   ENMAX  =  174.982; ENMIN  =  131.236 eV

  PAW_PBE Cd 06Sep2000                  :
  PAW_PBE Te 08Apr2002                  :

 POSCAR: CdTe (ICSD, 295K, Rabadanov 2001)
  positions in direct lattice
  velocities in cartesian coordinates
 exchange correlation table for  LEXCH =       14
   RHO(1)=    0.500       N(1)  =     2000
   RHO(2)=  100.500       N(2)  =     4000

 ion  position               nearest neighbor table
   1  0.000  0.000  0.000-   2 2.81   2 2.81   2 2.81   2 2.81
   2  0.250  0.250  0.250-   1 2.81   1 2.81   1 2.81   1 2.81

  LATTYP: Found a face centered cubic cell.
 ALAT       =     6.4827000000

  Lattice vectors:

 A1 = (   3.2413500000,   3.2413500000,   0.0000000000)
 A2 = (   3.2413500000,   0.0000000000,  -3.2413500000)
 A3 = (   0.0000000000,   3.2413500000,  -3.2413500000)

Analysis of symmetry for initial positions (statically):
 Subroutine PRICEL returns:
 Original cell was already a primitive cell.

 Routine SETGRP: Setting up the symmetry group for a
 face centered cubic supercell.

 Subroutine GETGRP returns: Found 24 space group operations
 (whereof 24 operations were pure point group operations)
 out of a pool of 48 trial point group operations.

The static configuration has the point symmetry T_d .

Analysis of symmetry for dynamics (positions and initial velocities):
 Subroutine PRICEL returns:
 Original cell was already a primitive cell.

 Routine SETGRP: Setting up the symmetry group for a
 face centered cubic supercell.

 Subroutine GETGRP returns: Found 24 space group operations
 (whereof 24 operations were pure point group operations)
 out of a pool of 48 trial point group operations.

The dynamic configuration has the point symmetry T_d .

 Subroutine INISYM returns: Found 24 space group operations
 (whereof 24 operations are pure point group operations),
 and found     1 'primitive' translations

 KPOINTS: Automatically generated mesh SCF: 16 ste
  k-points in reciprocal lattice
Space group operators:
 irot       det(A)        alpha          n_x          n_y          n_z        tau_x        tau_y        tau_z
    1     1.000000     0.000000     1.000000     0.000000     0.000000     0.000000     0.000000     0.000000
    2     1.000000   120.000000    -0.577350    -0.577350     0.577350     0.000000     0.000000     0.000000
    3     1.000000   120.000000     0.577350     0.577350    -0.577350     0.000000     0.000000     0.000000
    4    -1.000000    90.000000    -1.000000     0.000000     0.000000     0.000000     0.000000     0.000000
    5    -1.000000   180.000000     0.707107     0.707107     0.000000     0.000000     0.000000     0.000000
    6    -1.000000    90.000000     0.000000     1.000000     0.000000     0.000000     0.000000     0.000000
    7     1.000000   180.000000     1.000000     0.000000     0.000000     0.000000     0.000000     0.000000
    8     1.000000   120.000000     0.577350     0.577350     0.577350     0.000000     0.000000     0.000000
    9     1.000000   120.000000    -0.577350     0.577350     0.577350     0.000000     0.000000     0.000000
   10    -1.000000    90.000000     1.000000     0.000000     0.000000     0.000000     0.000000     0.000000
   11    -1.000000    90.000000     0.000000     0.000000     1.000000     0.000000     0.000000     0.000000
   12    -1.000000   180.000000     0.707107     0.000000    -0.707107     0.000000     0.000000     0.000000
   13     1.000000   120.000000     0.577350    -0.577350    -0.577350     0.000000     0.000000     0.000000
   14     1.000000   120.000000     0.577350    -0.577350     0.577350     0.000000     0.000000     0.000000
   15     1.000000   180.000000     0.000000     0.000000     1.000000     0.000000     0.000000     0.000000
   16    -1.000000    90.000000     0.000000    -1.000000     0.000000     0.000000     0.000000     0.000000
   17    -1.000000   180.000000     0.000000    -0.707107     0.707107     0.000000     0.000000     0.000000
   18    -1.000000    90.000000     0.000000     0.000000    -1.000000     0.000000     0.000000     0.000000
   19     1.000000   120.000000    -0.577350    -0.577350    -0.577350     0.000000     0.000000     0.000000
   20     1.000000   180.000000     0.000000     1.000000     0.000000     0.000000     0.000000     0.000000
   21     1.000000   120.000000    -0.577350     0.577350    -0.577350     0.000000     0.000000     0.000000
   22    -1.000000   180.000000     0.707107    -0.707107     0.000000     0.000000     0.000000     0.000000
   23    -1.000000   180.000000     0.000000     0.707107     0.707107     0.000000     0.000000     0.000000
   24    -1.000000   180.000000     0.707107     0.000000     0.707107     0.000000     0.000000     0.000000

 I would recommend the setting:
   dimension x,y,z NGX =    33 NGY =   33 NGZ =   33
 SYSTEM =  Name
 POSCAR =  CdTe (ICSD, 295K, Rabadanov 2001)

 Startparameter for this run:
   NWRITE =      2    write-flag & timer
   PREC   = accura    normal or accurate (medium, high low for compatibility)
   ISTART =      0    job   : 0-new  1-cont  2-samecut
   ICHARG =     11    charge: 1-file 2-atom 10-const
   ISPIN  =      1    spin polarized calculation?
   LNONCOLLINEAR =      F non collinear calculations
   LSORBIT =      F    spin-orbit coupling
   INIWAV =      1    electr: 0-lowe 1-rand  2-diag
   LASPH  =      F    aspherical Exc in radial PAW
   METAGGA=      F    non-selfconsistent MetaGGA calc.

 Electronic Relaxation 1
   ENCUT  =  500.0 eV  36.75 Ry    6.06 a.u.   8.36  8.36  8.36*2*pi/ulx,y,z
   ENINI  =  500.0     initial cutoff
   ENAUG  =  456.1 eV  augmentation charge cutoff
   NELM   =     60;   NELMIN=  2; NELMDL=  0     # of ELM steps
   EDIFF  = 0.1E-05   stopping-criterion for ELM
   LREAL  =      F    real-space projection
   NLSPLINE    = F    spline interpolate recip. space projectors
   LCOMPAT=      F    compatible to vasp.4.4
   GGA_COMPAT  = T    GGA compatible to vasp.4.4-vasp.4.6
   LMAXPAW     = -100 max onsite density
   LMAXMIX     =    2 max onsite mixed and CHGCAR
   VOSKOWN=      0    Vosko Wilk Nusair interpolation
   ROPT   =    0.00000   0.00000
 Ionic relaxation
   EDIFFG = -.5E-02   stopping-criterion for IOM
   NSW    =      1    number of steps for IOM
   NBLOCK =      1;   KBLOCK =      1    inner block; outer block
   IBRION =      2    ionic relax: 0-MD 1-quasi-New 2-CG
   NFREE  =      1    steps in history (QN), initial steepest desc. (CG)
   ISIF   =      3    stress and relaxation
   IWAVPR =     11    prediction:  0-non 1-charg 2-wave 3-comb
   ISYM   =      2    0-nonsym 1-usesym 2-fastsym
   LCORR  =      T    Harris-Foulkes like correction to forces

   POTIM  = 0.5000    time-step for ionic-motion
   TEIN   =    0.0    initial temperature
   TEBEG  =    0.0;   TEEND  =   0.0 temperature during run
   SMASS  =  -3.00    Nose mass-parameter (am)
   estimated Nose-frequenzy (Omega)   =  0.10E-29 period in steps =****** mass=  -0.480E-27a.u.
   SCALEE = 1.0000    scale energy and forces
   NPACO  =    256;   APACO  = 16.0  distance and # of slots for P.C.
   PSTRESS=    0.0 pullay stress

  Mass of Ions in am
   POMASS = 112.41127.60
  Ionic Valenz
   ZVAL   =  12.00  6.00
  Atomic Wigner-Seitz radii
  virtual crystal weights
   VCA    =   1.00  1.00
   NELECT =      18.0000    total number of electrons
   NUPDOWN=      -1.0000    fix difference up-down

 DOS related values:
   EMIN   =  10.00;   EMAX   =-10.00  energy-range for DOS
   EFERMI =   0.00
   ISMEAR =     0;   SIGMA  =   0.01  broadening in eV -4-tet -1-fermi 0-gaus

 Electronic relaxation 2 (details)
   IALGO  =     38    algorithm
   LDIAG  =      T    sub-space diagonalisation (order eigenvalues)
   LSUBROT=      F    optimize rotation matrix (better conditioning)
   TURBO    =      0    0=normal 1=particle mesh
   IRESTART =      0    0=no restart 2=restart with 2 vectors
   NREBOOT  =      0    no. of reboots
   NMIN     =      0    reboot dimension
   EREF     =   0.00    reference energy to select bands
   IMIX   =      4    mixing-type and parameters
     AMIX     =   0.40;   BMIX     =  1.00
     AMIX_MAG =   1.60;   BMIX_MAG =  1.00
     AMIN     =   0.01
     WC   =   100.;   INIMIX=   1;  MIXPRE=   1;  MAXMIX= -45

 Intra band minimization:
   WEIMIN = 0.0010     energy-eigenvalue tresh-hold
   EBREAK =  0.16E-07  absolut break condition
   DEPER  =   0.30     relativ break condition

   TIME   =   0.40     timestep for ELM

  volume/ion in A,a.u.               =      34.05       229.81
  Fermi-wavevector in a.u.,A,eV,Ry     =   1.050581  1.985311 15.017042  1.103721
  Thomas-Fermi vector in A             =   2.185590

 Write flags
   LWAVE  =      T    write WAVECAR
   LCHARG =      T    write CHGCAR
   LVTOT  =      F    write LOCPOT, total local potential
   LVHAR  =      F    write LOCPOT, Hartree potential only
   LELF   =      F    write electronic localiz. function (ELF)
   LORBIT =     10    0 simple, 1 ext, 2 COOP (PROOUT)

 Dipole corrections
   LMONO  =      F    monopole corrections only (constant potential shift)
   LDIPOL =      F    correct potential (dipole corrections)
   IDIPOL =      0    1-x, 2-y, 3-z, 4-all directions
   EPSILON=  1.0000000 bulk dielectric constant

 Core level calculations are selected ICORELEVEL =  1
 Exchange correlation treatment:
   GGA     =    PS    GGA type
   VOSKOWN=      0    Vosko Wilk Nusair interpolation
   LHFCALC =     F    Hartree Fock is set to
   LHFONE  =     F    Hartree Fock one center treatment
   AEXX    =    0.0000 exact exchange contribution

 Linear response parameters
   LEPSILON=     F    determine dielectric tensor
   LRPA    =     F    only Hartree local field effects (RPA)
   LNABLA  =     F    use nabla operator in PAW spheres
   LVEL    =     F    velocity operator in full k-point grid
   LINTERFAST=   F  fast interpolation
   KINTER  =     0    interpolate to denser k-point grid
   CSHIFT  =0.1000    complex shift for real part using Kramers Kronig
   OMEGAMAX=  -1.0    maximum frequency
   DEG_THRESHOLD= 0.2000000E-02 threshold for treating states as degnerate
   RTIME   =    0.100 relaxation time in fs

 Orbital magnetization related:
   ORBITALMAG=     F  switch on orbital magnetization
   LCHIMAG   =     F  perturbation theory with respect to B field
   DQ        =  0.001000  dq finite difference perturbation B field

 conjugate gradient relaxation of ions
 charge density and potential remain constant during run
 non-spin polarized calculation
 Variant of blocked Davidson
 Davidson routine will perform the subspace rotation
 perform sub-space diagonalisation
    after iterative eigenvector-optimisation
 no mixing
[...]
 k-point  2 :   0.1667 0.0000 0.0000  plane waves:    1747
 k-point  3 :   0.3333 0.0000 0.0000  plane waves:    1730
 k-point  4 :   0.5000 0.0000 0.0000  plane waves:    1718
 k-point  5 :   0.1667 0.1667 0.0000  plane waves:    1736
 k-point  6 :   0.3333 0.1667 0.0000  plane waves:    1729
 k-point  7 :   0.5000 0.1667 0.0000  plane waves:    1739
 k-point  8 :  -0.3333 0.1667 0.0000  plane waves:    1732
 k-point  9 :  -0.1667 0.1667 0.0000  plane waves:    1735
 k-point 10 :   0.3333 0.3333 0.0000  plane waves:    1728
 k-point 11 :   0.5000 0.3333 0.0000  plane waves:    1723
 k-point 12 :  -0.3333 0.3333 0.0000  plane waves:    1726
 k-point 13 :   0.5000 0.5000 0.0000  plane waves:    1724
 k-point 14 :   0.5000 0.3333 0.1667  plane waves:    1724
 k-point 15 :  -0.3333 0.3333 0.1667  plane waves:    1726
 k-point 16 :  -0.3333 0.5000 0.1667  plane waves:    1722
 k-point 17 :   0.0000 0.0000 0.0000  plane waves:    1759
 k-point 18 :   0.0004 0.0000 0.0004  plane waves:    1759
 k-point 19 :   0.0008 0.0000 0.0008  plane waves:    1759
 k-point 20 :   0.0013 0.0000 0.0013  plane waves:    1759
 k-point 21 :   0.0017 0.0000 0.0017  plane waves:    1759
 k-point 22 :   0.0021 0.0000 0.0021  plane waves:    1759
 k-point 23 :   0.0025 0.0000 0.0025  plane waves:    1759
 k-point 24 :   0.0029 0.0000 0.0029  plane waves:    1759
 k-point 25 :   0.0034 0.0000 0.0034  plane waves:    1759
 k-point 26 :   0.0038 0.0000 0.0038  plane waves:    1759
 k-point 27 :   0.0042 0.0000 0.0042  plane waves:    1759
 k-point 28 :   0.0046 0.0000 0.0046  plane waves:    1759
 k-point 29 :   0.0051 0.0000 0.0051  plane waves:    1759
 k-point 30 :   0.0055 0.0000 0.0055  plane waves:    1759
 k-point 31 :   0.0059 0.0000 0.0059  plane waves:    1759
 k-point 32 :   0.0063 0.0000 0.0063  plane waves:    1759
 k-point 33 :   0.0067 0.0000 0.0067  plane waves:    1759
 k-point 34 :   0.0072 0.0000 0.0072  plane waves:    1759
 k-point 35 :   0.0076 0.0000 0.0076  plane waves:    1767
 k-point 36 :   0.0080 0.0000 0.0080  plane waves:    1767
 k-point 37 :   0.0084 0.0000 0.0084  plane waves:    1767
 k-point 38 :   0.0088 0.0000 0.0088  plane waves:    1767
 k-point 39 :   0.0093 0.0000 0.0093  plane waves:    1767
 k-point 40 :   0.0097 0.0000 0.0097  plane waves:    1767
 k-point 41 :   0.0101 0.0000 0.0101  plane waves:    1767
 k-point 42 :   0.0105 0.0000 0.0105  plane waves:    1767
 k-point 43 :   0.0109 0.0000 0.0109  plane waves:    1767
 k-point 44 :   0.0114 0.0000 0.0114  plane waves:    1767
 k-point 45 :   0.0118 0.0000 0.0118  plane waves:    1767
 k-point 46 :   0.0122 0.0000 0.0122  plane waves:    1767
 k-point 47 :   0.0126 0.0000 0.0126  plane waves:    1775
 k-point 48 :   0.0130 0.0000 0.0130  plane waves:    1775
 k-point 49 :   0.0135 0.0000 0.0135  plane waves:    1775
 k-point 50 :   0.0139 0.0000 0.0139  plane waves:    1775
 k-point 51 :   0.0143 0.0000 0.0143  plane waves:    1775
 k-point 52 :   0.0147 0.0000 0.0147  plane waves:    1775
 k-point 53 :   0.0152 0.0000 0.0152  plane waves:    1775
 k-point 54 :   0.0156 0.0000 0.0156  plane waves:    1775
 k-point 55 :   0.0160 0.0000 0.0160  plane waves:    1771
 k-point 56 :   0.0164 0.0000 0.0164  plane waves:    1771
 k-point 57 :   0.0168 0.0000 0.0168  plane waves:    1771
 k-point 58 :   0.0173 0.0000 0.0173  plane waves:    1771
 k-point 59 :   0.0177 0.0000 0.0177  plane waves:    1771
 k-point 60 :   0.0181 0.0000 0.0181  plane waves:    1771
[...]
 k-point 85 :   0.0286 0.0000 0.0286  plane waves:    1755
 k-point 86 :   0.0290 0.0000 0.0290  plane waves:    1755
 k-point 87 :   0.0295 0.0000 0.0295  plane waves:    1755
 k-point 88 :   0.0299 0.0000 0.0299  plane waves:    1755
 k-point 89 :   0.0303 0.0000 0.0303  plane waves:    1755
 k-point 90 :   0.0307 0.0000 0.0307  plane waves:    1755
 k-point 91 :   0.0311 0.0000 0.0311  plane waves:    1755
 k-point 92 :   0.0316 0.0000 0.0316  plane waves:    1755
 k-point 93 :   0.0320 0.0000 0.0320  plane waves:    1755
 k-point 94 :   0.0324 0.0000 0.0324  plane waves:    1755
 k-point 95 :   0.0328 0.0000 0.0328  plane waves:    1755
 k-point 96 :   0.0332 0.0000 0.0332  plane waves:    1755
 k-point 97 :   0.0337 0.0000 0.0337  plane waves:    1755
 k-point 98 :   0.0341 0.0000 0.0341  plane waves:    1755
 k-point 99 :   0.0345 0.0000 0.0345  plane waves:    1755
 k-point ** :   0.0349 0.0000 0.0349  plane waves:    1755
 k-point ** :   0.0354 0.0000 0.0354  plane waves:    1755
 k-point ** :   0.0358 0.0000 0.0358  plane waves:    1755
 k-point ** :   0.0362 0.0000 0.0362  plane waves:    1755
 k-point ** :   0.0366 0.0000 0.0366  plane waves:    1755
 k-point ** :   0.0370 0.0000 0.0370  plane waves:    1755
 k-point ** :   0.0375 0.0000 0.0375  plane waves:    1755
 k-point ** :   0.0379 0.0000 0.0379  plane waves:    1755
 k-point ** :   0.0383 0.0000 0.0383  plane waves:    1763
 k-point ** :   0.0387 0.0000 0.0387  plane waves:    1763
 k-point ** :   0.0391 0.0000 0.0391  plane waves:    1763
 k-point ** :   0.0396 0.0000 0.0396  plane waves:    1763
 k-point ** :   0.0400 0.0000 0.0400  plane waves:    1763
 k-point ** :   0.0404 0.0000 0.0404  plane waves:    1763
 k-point ** :   0.0408 0.0000 0.0408  plane waves:    1763
 k-point ** :   0.0412 0.0000 0.0412  plane waves:    1763
 k-point ** :   0.0417 0.0000 0.0417  plane waves:    1763
 k-point ** :   0.0421 0.0000 0.0421  plane waves:    1763
 k-point ** :   0.0425 0.0000 0.0425  plane waves:    1763
 k-point ** :   0.0429 0.0000 0.0429  plane waves:    1763
 k-point ** :   0.0434 0.0000 0.0434  plane waves:    1763
 k-point ** :   0.0438 0.0000 0.0438  plane waves:    1763
 k-point ** :   0.0442 0.0000 0.0442  plane waves:    1763
 k-point ** :   0.0446 0.0000 0.0446  plane waves:    1763
 k-point ** :   0.0450 0.0000 0.0450  plane waves:    1763
 k-point ** :   0.0455 0.0000 0.0455  plane waves:    1763
 k-point ** :   0.0459 0.0000 0.0459  plane waves:    1763
 k-point ** :   0.0463 0.0000 0.0463  plane waves:    1763
 k-point ** :   0.0467 0.0000 0.0467  plane waves:    1763
 k-point ** :   0.0471 0.0000 0.0471  plane waves:    1763
 k-point ** :   0.0476 0.0000 0.0476  plane waves:    1763
 k-point ** :   0.0480 0.0000 0.0480  plane waves:    1763
 k-point ** :   0.0484 0.0000 0.0484  plane waves:    1763
 k-point ** :   0.0488 0.0000 0.0488  plane waves:    1763
 k-point ** :   0.0492 0.0000 0.0492  plane waves:    1763
 k-point ** :   0.0497 0.0000 0.0497  plane waves:    1763
 k-point ** :   0.0501 0.0000 0.0501  plane waves:    1763
 k-point ** :   0.0505 0.0000 0.0505  plane waves:    1763
 k-point ** :   0.0509 0.0000 0.0509  plane waves:    1763
 k-point ** :   0.0513 0.0000 0.0513  plane waves:    1763
 k-point ** :   0.0518 0.0000 0.0518  plane waves:    1763
 k-point ** :   0.0522 0.0000 0.0522  plane waves:    1763
 k-point ** :   0.0526 0.0000 0.0526  plane waves:    1763
 k-point ** :   0.0530 0.0000 0.0530  plane waves:    1763
 k-point ** :   0.0535 0.0000 0.0535  plane waves:    1763
 k-point ** :   0.0539 0.0000 0.0539  plane waves:    1763
 k-point ** :   0.0543 0.0000 0.0543  plane waves:    1763
 k-point ** :   0.0547 0.0000 0.0547  plane waves:    1763
 k-point ** :   0.0551 0.0000 0.0551  plane waves:    1763
 k-point ** :   0.0556 0.0000 0.0556  plane waves:    1763
 k-point ** :   0.0560 0.0000 0.0560  plane waves:    1763
 k-point ** :   0.0564 0.0000 0.0564  plane waves:    1763
 k-point ** :   0.0568 0.0000 0.0568  plane waves:    1763
 k-point ** :   0.0572 0.0000 0.0572  plane waves:    1747
 k-point ** :   0.0577 0.0000 0.0577  plane waves:    1747
 k-point ** :   0.0581 0.0000 0.0581  plane waves:    1747
 k-point ** :   0.0585 0.0000 0.0585  plane waves:    1747
 k-point ** :   0.0589 0.0000 0.0589  plane waves:    1747
 k-point ** :   0.0593 0.0000 0.0593  plane waves:    1747
 k-point ** :   0.0598 0.0000 0.0598  plane waves:    1747
[...]
 k-point ** :   0.4937 0.0000 0.4937  plane waves:    1724
 k-point ** :   0.4941 0.0000 0.4941  plane waves:    1724
 k-point ** :   0.4945 0.0000 0.4945  plane waves:    1724
 k-point ** :   0.4949 0.0000 0.4949  plane waves:    1724
 k-point ** :   0.4954 0.0000 0.4954  plane waves:    1724
 k-point ** :   0.4958 0.0000 0.4958  plane waves:    1724
 k-point ** :   0.4962 0.0000 0.4962  plane waves:    1724
 k-point ** :   0.4966 0.0000 0.4966  plane waves:    1724
 k-point ** :   0.4971 0.0000 0.4971  plane waves:    1724
 k-point ** :   0.4975 0.0000 0.4975  plane waves:    1724
 k-point ** :   0.4979 0.0000 0.4979  plane waves:    1724
 k-point ** :   0.4983 0.0000 0.4983  plane waves:    1724
 k-point ** :   0.4987 0.0000 0.4987  plane waves:    1724
 k-point ** :   0.4992 0.0000 0.4992  plane waves:    1724
 k-point ** :   0.4996 0.0000 0.4996  plane waves:    1724

 maximum and minimum number of plane-waves per node :       303      271

 maximum number of plane-waves:      1775
 maximum index in each direction:
   IXMAX=    8   IYMAX=    8   IZMAX=    8
   IXMIN=   -8   IYMIN=   -8   IZMIN=   -8

 NGX is ok and might be reduce to  34
 NGY is ok and might be reduce to  34
 NGZ is ok and might be reduce to  34

 parallel 3D FFT for wavefunctions:
    minimum data exchange during FFTs selected (reduces bandwidth)
 parallel 3D FFT for charge:
    minimum data exchange during FFTs selected (reduces bandwidth)

 initial charge density was supplied:
 number of electron      18.0000000 magnetization
 keeping initial charge density in first step

 Maximum index for augmentation-charges         1676 (set IRDMAX)

 First call to EWALD:  gamma=   0.434
 Maximum number of real-space cells 3x 3x 3
 Maximum number of reciprocal cells 3x 3x 3

 FEWALD executed in parallel

----------------------------------------- Iteration    1(   1)  ---------------------------------------

 eigenvalue-minimisations  : 38904
 total energy-change (2. order) : 0.9747822E+02  (-0.8222084E+03)
 number of electron      18.0000000 magnetization
 augmentation part       18.0000000 magnetization

 Free energy of the ion-electron system (eV)
  alpha Z        PSCENC =        50.17222034
  Ewald energy   TEWEN  =     -1044.83138452
  -Hartree energ DENC   =      -504.99582460
  -exchange      EXHF   =         0.00000000
  -V(xc)+E(xc)   XCENC  =       -20.59894587
  PAW double counting   =      1708.54112970    -1637.28476310
  entropy T*S    EENTRO =        -0.00059585
  eigenvalues    EBANDS =        30.27096869
  atomic energy  EATOM  =      1516.20541573
  Solvation  Ediel_sol  =         0.00000000
  free energy    TOTEN  =        97.47822052 eV

  energy without entropy =       97.47881637  energy(sigma->0) =       97.47851844

[...]

 eigenvalue-minimisations  : 44112
 total energy-change (2. order) :-0.9948794E+02  (-0.9497123E+02)
 number of electron      18.0000000 magnetization
 augmentation part       18.0000000 magnetization

[...]

----------------------------------------- Iteration    1(   7)  ---------------------------------------

 eigenvalue-minimisations  : 43392
 total energy-change (2. order) :-0.1667445E-07  (-0.1663878E-07)
 number of electron      18.0000000 magnetization
 augmentation part       18.0000000 magnetization

 Free energy of the ion-electron system (eV)
  alpha Z        PSCENC =        50.17222034
  Ewald energy   TEWEN  =     -1044.83138452
  -Hartree energ DENC   =      -504.99582460
  -exchange      EXHF   =         0.00000000
  -V(xc)+E(xc)   XCENC  =       -20.59894587
  PAW double counting   =      1708.54112970    -1637.28476310
  entropy T*S    EENTRO =        -0.00000000
  eigenvalues    EBANDS =       -72.70110567
  atomic energy  EATOM  =      1516.20541573
  Solvation  Ediel_sol  =         0.00000000
  free energy    TOTEN  =        -5.49325799 eV

  energy without entropy =       -5.49325799  energy(sigma->0) =       -5.49325799

 the core state eigenenergies are
   1-  1s -26513.5706  2s  -3930.7399  2p  -3525.9966  3s   -727.5628  3p   -594.8522
       3d   -387.3088  4s    -99.6505  4p    -60.6945
   2-  1s -31612.8737  2s  -4840.4554  2p  -4343.8509  3s   -956.6729  3p   -795.3307
       3d   -551.5808  4s   -156.1800  4p   -106.2196  4d    -33.5453

 E-fermi :   2.3118     XC(G=0):  -8.7634     alpha+bet : -7.4227

 k-point     1 :       0.0000    0.0000    0.0000
  band No.  band energies     occupation
      1      -8.9586      2.00000
      2      -5.8303      2.00000
      3      -5.8303      2.00000
      4      -5.8303      2.00000
      5      -5.5525      2.00000
      6      -5.5525      2.00000
      7       2.2607      2.00000
      8       2.2607      2.00000
      9       2.2607      2.00000
     10       2.8942      0.00000
     11       6.7663      0.00000
     12       6.7663      0.00000
     13       6.7663      0.00000
     14       9.5086      0.00000
     15      11.5756      0.00000
     16      11.5756      0.00000

[...]

 k-point  1204 :       0.4996    0.0000    0.4996
  band No.  band energies     occupation
      1      -8.3998      2.00000
      2      -5.6701      2.00000
      3      -5.6555      2.00000
      4      -5.6555      2.00000
      5      -5.5199      2.00000
      6      -5.0954      2.00000
      7      -2.1084      2.00000
      8       0.3530      2.00000
      9       0.3530      2.00000
     10       4.7082      0.00000
     11       4.8283      0.00000
     12      10.9483      0.00000
     13      11.2989      0.00000
     14      11.2989      0.00000
     15      13.0362      0.00000
     16      13.7462      0.00000

 soft charge-density along one line, spin component           1
         0         1         2         3         4         5         6         7         8         9
 total charge-density along one line

------------------------ aborting loop because EDIFF is reached ----------------------------------------

 total charge

# of ion     s       p       d       tot
  1        0.473   0.320   9.522  10.315
  2        1.351   2.041   0.022   3.414
tot        1.824   2.361   9.544  13.729

  FORCE on cell =-STRESS in cart. coord.  units (eV):
  Direction    XX          YY          ZZ          XY          YZ          ZX
  Alpha Z    50.17222    50.17222    50.17222
  Ewald    -348.27726  -348.27726  -348.27726     0.00000     0.00000     0.00000
  Hartree   166.39054   166.39054   166.39054     0.00000    -0.00000    -0.00000
  E(xc)     -86.51613   -86.51613   -86.51613    -0.00000     0.00000     0.00000
  Local     -18.13000   -18.13000   -18.13000     0.00001    -0.00001    -0.00001
  n-local    21.77380    27.04899    26.17482    -1.74284    -3.04445    -1.13548
  augment     5.57736     5.57736     5.57736    -0.00001     0.00001     0.00001
  Kinetic   200.21809   203.72155   203.96489    -1.61817    -3.08908    -1.23070
  Fock        0.00000     0.00000     0.00000     0.00000     0.00000     0.00000
  Total      -3.14923    -3.14923    -3.14923     0.00000    -0.00000     0.00000
  in kB     -74.08111   -74.08111   -74.08111     0.00000    -0.00000     0.00000

 VOLUME and BASIS-vectors are now :
  energy-cutoff  :      500.00
  volume of cell :       68.11
      direct lattice vectors                 reciprocal lattice vectors
     3.241350000  3.241350000  0.000000000     0.154256714  0.154256714  0.154256714
     3.241350000  0.000000000 -3.241350000     0.154256714 -0.154256714 -0.154256714
     0.000000000  3.241350000 -3.241350000    -0.154256714  0.154256714 -0.154256714

  length of vectors
     4.583961130  4.583961130  4.583961130     0.267180466  0.267180466  0.267180466

 FORCES acting on ions
    electron-ion (+dipol)            ewald-force                    non-local-force                 convergence-correction
   -.322E-06 -.323E-06 0.323E-06   -.744E-14 -.454E-14 0.998E-14   0.694E-16 0.763E-16 -.694E-16   0.552E-06 0.552E-06 0.550E-06
   0.157E-06 0.163E-06 -.163E-06   0.759E-14 0.606E-14 -.102E-13   0.142E-15 0.125E-15 -.222E-15   0.131E-06 0.131E-06 0.131E-06
   -.165E-06 -.160E-06 0.160E-06   0.152E-15 0.152E-14 -.238E-15   0.212E-15 0.201E-15 -.291E-15   0.683E-06 0.683E-06 0.680E-06

 POSITION                                       TOTAL-FORCE (eV/Angst)
      0.00000      0.00000      0.00000         0.000000     -0.000000      0.000000
      1.62068      1.62068     -1.62068        -0.000000      0.000000     -0.000000
    total drift:                                0.000001      0.000001      0.000001

  FREE ENERGIE OF THE ION-ELECTRON SYSTEM (eV)
  free  energy   TOTEN  =        -5.49325799 eV

  energy  without entropy=       -5.49325799  energy(sigma->0) =       -5.49325799

 writing wavefunctions

 total charge

# of ion     s       p       d       tot
  1        0.473   0.320   9.522  10.315
  2        1.351   2.041   0.022   3.414
tot        1.824   2.361   9.544  13.729