 vasp.5.3.5 31Mar14 (build Mar 26 2015 15:03:36) complex

 executed on             LinuxIFC date 2015.10.09  14:04:35

 INCAR:
 POTCAR:    PAW_PBE Na 08Apr2002
 POTCAR:    PAW_PBE Cl 06Sep2000
 POTCAR:    PAW_PBE Na 08Apr2002
   VRHFIN =Na: s1p0

   TITEL  = PAW_PBE Na 08Apr2002
   POMASS =   22.990; ZVAL   =    1.000    mass and valenz
   ENMAX  =  101.968; ENMIN  =   76.476 eV

 POTCAR:    PAW_PBE Cl 06Sep2000
   VRHFIN =Cl: s2p5

   TITEL  = PAW_PBE Cl 06Sep2000
   POMASS =   35.453; ZVAL   =    7.000    mass and valenz
   ENMAX  =  262.472; ENMIN  =  196.854 eV

  PAW_PBE Na 08Apr2002                  :
  PAW_PBE Cl 06Sep2000                  :

 POSCAR: Cl1 Na1
  positions in direct lattice
 exchange correlation table for  LEXCH =        8
   RHO(1)=    0.500       N(1)  =     2000
   RHO(2)=  100.500       N(2)  =     4000

 ion  position               nearest neighbor table
   1  0.000  0.000  0.000-   6 2.83   7 2.83   8 2.83   8 2.83   7 2.83   6 2.83   2 4.00   3 4.00
                             2 4.00   2 4.00   4 4.00   3 4.00   2 4.00   3 4.00   4 4.00   4 4.00
   2  0.000  0.500  0.500-   5 2.83   7 2.83   8 2.83   7 2.83   8 2.83   5 2.83   1 4.00   4 4.00
                             1 4.00   1 4.00   3 4.00   3 4.00   1 4.00   3 4.00   4 4.00   4 4.00
   3  0.500  0.000  0.500-   5 2.83   6 2.83   8 2.83   6 2.83   5 2.83   8 2.83   1 4.00   4 4.00
                             1 4.00   2 4.00   4 4.00   2 4.00   4 4.00   1 4.00   2 4.00   4 4.00
   4  0.500  0.500  0.000-   5 2.83   6 2.83   7 2.83   5 2.83   6 2.83   7 2.83   2 4.00   3 4.00
                             1 4.00   1 4.00   3 4.00   2 4.00   3 4.00   1 4.00   2 4.00   3 4.00
   5  0.500  0.500  0.500-   2 2.83   3 2.83   4 2.83   4 2.83   3 2.83   2 2.83
   6  0.500  0.000  0.000-   1 2.83   3 2.83   4 2.83   3 2.83   4 2.83   1 2.83
   7  0.000  0.500  0.000-   1 2.83   2 2.83   4 2.83   2 2.83   1 2.83   4 2.83
   8  0.000  0.000  0.500-   1 2.83   2 2.83   3 2.83   1 2.83   2 2.83   3 2.83

  LATTYP: Found a simple cubic cell.
 ALAT       =     5.6572999954

  Lattice vectors:

 A1 = (   5.6572999954,   0.0000000000,   0.0000000000)
 A2 = (   0.0000000000,   5.6572999954,   0.0000000000)
 A3 = (   0.0000000000,   0.0000000000,   5.6572999954)

Analysis of symmetry for initial positions (statically):
 Subroutine PRICEL returns following result:

  LATTYP: Found a face centered cubic cell.
 ALAT       =     5.6572999954

[...]

   4 primitive cells build up your supercell.

 Routine SETGRP: Setting up the symmetry group for a
 simple cubic supercell.

 Subroutine GETGRP returns: Found 48 space group operations
 (whereof 48 operations were pure point group operations)
 out of a pool of 48 trial point group operations.

The static configuration has the point symmetry O_h .

Analysis of symmetry for dynamics (positions and initial velocities):
 Subroutine PRICEL returns following result:

  LATTYP: Found a face centered cubic cell.
 ALAT       =     5.6572999954

  Lattice vectors:

 A1 = (   2.8286499977,   2.8286499977,  -0.0000000000)
 A2 = (   2.8286499977,   0.0000000000,  -2.8286499977)
 A3 = (   0.0000000000,   2.8286499977,  -2.8286499977)

   4 primitive cells build up your supercell.

 Routine SETGRP: Setting up the symmetry group for a
 simple cubic supercell.

 Subroutine GETGRP returns: Found 48 space group operations
 (whereof 48 operations were pure point group operations)
 out of a pool of 48 trial point group operations.

The dynamic configuration has the point symmetry O_h .

 KPOINTS: Automatically generated mesh
  k-points in reciprocal lattice
Space group operators:
 irot       det(A)        alpha          n_x          n_y          n_z        tau_x        tau_y        tau_z
    1     1.000000     0.000000     1.000000     0.000000     0.000000     0.000000     0.000000     0.000000
    2    -1.000000     0.000000     1.000000     0.000000     0.000000     0.000000     0.000000     0.000000
    3     1.000000   120.000000    -0.577350    -0.577350    -0.577350     0.000000     0.000000     0.000000
    4    -1.000000   120.000000    -0.577350    -0.577350    -0.577350     0.000000     0.000000     0.000000
    5     1.000000   120.000000     0.577350     0.577350     0.577350     0.000000     0.000000     0.000000
    6    -1.000000   120.000000     0.577350     0.577350     0.577350     0.000000     0.000000     0.000000
    7     1.000000    90.000000     0.000000     0.000000    -1.000000     0.000000     0.000000     0.000000
    8    -1.000000    90.000000     0.000000     0.000000    -1.000000     0.000000     0.000000     0.000000
    9     1.000000   180.000000     0.000000     0.707107     0.707107     0.000000     0.000000     0.000000
   10    -1.000000   180.000000     0.000000     0.707107     0.707107     0.000000     0.000000     0.000000
   11     1.000000    90.000000     0.000000     1.000000     0.000000     0.000000     0.000000     0.000000
   12    -1.000000    90.000000     0.000000     1.000000     0.000000     0.000000     0.000000     0.000000
   13     1.000000   180.000000     0.000000     0.000000     1.000000     0.000000     0.000000     0.000000
   14    -1.000000   180.000000     0.000000     0.000000     1.000000     0.000000     0.000000     0.000000
   15     1.000000   120.000000    -0.577350     0.577350     0.577350     0.000000     0.000000     0.000000
   16    -1.000000   120.000000    -0.577350     0.577350     0.577350     0.000000     0.000000     0.000000
   17     1.000000   120.000000    -0.577350     0.577350    -0.577350     0.000000     0.000000     0.000000
   18    -1.000000   120.000000    -0.577350     0.577350    -0.577350     0.000000     0.000000     0.000000
   19     1.000000    90.000000     0.000000     0.000000     1.000000     0.000000     0.000000     0.000000
   20    -1.000000    90.000000     0.000000     0.000000     1.000000     0.000000     0.000000     0.000000
   21     1.000000    90.000000    -1.000000     0.000000     0.000000     0.000000     0.000000     0.000000
   22    -1.000000    90.000000    -1.000000     0.000000     0.000000     0.000000     0.000000     0.000000
   23     1.000000   180.000000     0.707107     0.000000     0.707107     0.000000     0.000000     0.000000
   24    -1.000000   180.000000     0.707107     0.000000     0.707107     0.000000     0.000000     0.000000
   25     1.000000   120.000000     0.577350    -0.577350     0.577350     0.000000     0.000000     0.000000
   26    -1.000000   120.000000     0.577350    -0.577350     0.577350     0.000000     0.000000     0.000000
   27     1.000000   120.000000    -0.577350    -0.577350     0.577350     0.000000     0.000000     0.000000
   28    -1.000000   120.000000    -0.577350    -0.577350     0.577350     0.000000     0.000000     0.000000
   29     1.000000   180.000000     1.000000     0.000000     0.000000     0.000000     0.000000     0.000000
   30    -1.000000   180.000000     1.000000     0.000000     0.000000     0.000000     0.000000     0.000000
   31     1.000000    90.000000     0.000000    -1.000000     0.000000     0.000000     0.000000     0.000000
   32    -1.000000    90.000000     0.000000    -1.000000     0.000000     0.000000     0.000000     0.000000
   33     1.000000   180.000000     0.707107     0.707107     0.000000     0.000000     0.000000     0.000000
   34    -1.000000   180.000000     0.707107     0.707107     0.000000     0.000000     0.000000     0.000000
   35     1.000000    90.000000     1.000000     0.000000     0.000000     0.000000     0.000000     0.000000
   36    -1.000000    90.000000     1.000000     0.000000     0.000000     0.000000     0.000000     0.000000
   37     1.000000   120.000000     0.577350    -0.577350    -0.577350     0.000000     0.000000     0.000000
   38    -1.000000   120.000000     0.577350    -0.577350    -0.577350     0.000000     0.000000     0.000000
   39     1.000000   180.000000     0.000000     1.000000     0.000000     0.000000     0.000000     0.000000
   40    -1.000000   180.000000     0.000000     1.000000     0.000000     0.000000     0.000000     0.000000
   41     1.000000   120.000000     0.577350     0.577350    -0.577350     0.000000     0.000000     0.000000
   42    -1.000000   120.000000     0.577350     0.577350    -0.577350     0.000000     0.000000     0.000000
   43     1.000000   180.000000     0.000000    -0.707107     0.707107     0.000000     0.000000     0.000000
   44    -1.000000   180.000000     0.000000    -0.707107     0.707107     0.000000     0.000000     0.000000
   45     1.000000   180.000000     0.707107    -0.707107     0.000000     0.000000     0.000000     0.000000
   46    -1.000000   180.000000     0.707107    -0.707107     0.000000     0.000000     0.000000     0.000000
   47     1.000000   180.000000     0.707107     0.000000    -0.707107     0.000000     0.000000     0.000000
   48    -1.000000   180.000000     0.707107     0.000000    -0.707107     0.000000     0.000000     0.000000

 I would recommend the setting:
   dimension x,y,z NGX =    31 NGY =   31 NGZ =   31
 SYSTEM =  Name
 POSCAR =  Cl1 Na1

 Startparameter for this run:
   NWRITE =      2    write-flag & timer
   PREC   = normal    normal or accurate (medium, high low for compatibility)
   ISTART =      0    job   : 0-new  1-cont  2-samecut
   ICHARG =      2    charge: 1-file 2-atom 10-const
   ISPIN  =      1    spin polarized calculation?
   LNONCOLLINEAR =      F non collinear calculations
   LSORBIT =      F    spin-orbit coupling
   INIWAV =      1    electr: 0-lowe 1-rand  2-diag
   LASPH  =      F    aspherical Exc in radial PAW
   METAGGA=      F    non-selfconsistent MetaGGA calc.

 Electronic Relaxation 1
   ENCUT  =  500.0 eV  36.75 Ry    6.06 a.u.  10.31 10.31 10.31*2*pi/ulx,y,z
   ENINI  =  500.0     initial cutoff
   ENAUG  =  356.2 eV  augmentation charge cutoff
   NELM   =     60;   NELMIN=  2; NELMDL=  0     # of ELM steps
   EDIFF  = 0.1E-05   stopping-criterion for ELM
   LREAL  =      F    real-space projection
   NLSPLINE    = F    spline interpolate recip. space projectors
   LCOMPAT=      F    compatible to vasp.4.4
   GGA_COMPAT  = T    GGA compatible to vasp.4.4-vasp.4.6
   LMAXPAW     = -100 max onsite density
   LMAXMIX     =    2 max onsite mixed and CHGCAR
   VOSKOWN=      0    Vosko Wilk Nusair interpolation
   ROPT   =    0.00000   0.00000
 Ionic relaxation
   EDIFFG = -.5E-02   stopping-criterion for IOM
   NSW    =      1    number of steps for IOM
   NBLOCK =      1;   KBLOCK =      1    inner block; outer block
   IBRION =      2    ionic relax: 0-MD 1-quasi-New 2-CG
   NFREE  =      1    steps in history (QN), initial steepest desc. (CG)
   ISIF   =      3    stress and relaxation
   IWAVPR =     11    prediction:  0-non 1-charg 2-wave 3-comb
   ISYM   =      2    0-nonsym 1-usesym 2-fastsym
   LCORR  =      T    Harris-Foulkes like correction to forces

   POTIM  = 0.5000    time-step for ionic-motion
   TEIN   =    0.0    initial temperature
   TEBEG  =    0.0;   TEEND  =   0.0 temperature during run
   SMASS  =  -3.00    Nose mass-parameter (am)
[...]
   0.04419069  0.00000000  0.00000000       0.094
   0.08838138  0.00000000  0.00000000       0.047
   0.04419069  0.04419069  0.00000000       0.188
   0.08838138  0.04419069  0.00000000       0.188
   0.08838138  0.08838138  0.00000000       0.047
   0.04419069  0.04419069  0.04419069       0.125
   0.08838138  0.04419069  0.04419069       0.188
   0.08838138  0.08838138  0.04419069       0.094
   0.08838138  0.08838138  0.08838138       0.016
   0.00000000  0.00000000  0.00000000       0.000
   0.00000000  0.01767628  0.00000000       0.000
   0.00000000  0.03535255  0.00000000       0.000
   0.00000000  0.05302883  0.00000000       0.000
   0.00000000  0.07070511  0.00000000       0.000
   0.00000000  0.08838138  0.00000000       0.000
   0.00000000  0.10605766  0.00000000       0.000
   0.00000000  0.12373394  0.00000000       0.000
   0.00000000  0.14141022  0.00000000       0.000
   0.00000000  0.15908650  0.00000000       0.000
   0.00000000  0.17676277  0.00000000       0.000
   0.01262591  0.16413685  0.00000000       0.000
   0.02525183  0.15151095  0.00000000       0.000
   0.03787773  0.13888503  0.00000000       0.000
   0.05050365  0.12625912  0.00000000       0.000
   0.06312956  0.11363320  0.00000000       0.000
   0.07575547  0.10100730  0.00000000       0.000
   0.08838138  0.08838138  0.00000000       0.000
   0.10100730  0.07575547  0.00000000       0.000
   0.11363322  0.06312955  0.00000000       0.000

 k-points in reciprocal lattice and weights: Automatically generated mesh
   0.00000000  0.00000000  0.00000000       0.016
   0.25000000  0.00000000  0.00000000       0.094
   0.50000000  0.00000000  0.00000000       0.047
   0.25000000  0.25000000  0.00000000       0.188
   0.50000000  0.25000000  0.00000000       0.188
   0.50000000  0.50000000  0.00000000       0.047
   0.25000000  0.25000000  0.25000000       0.125
   0.50000000  0.25000000  0.25000000       0.188
   0.50000000  0.50000000  0.25000000       0.094
   0.50000000  0.50000000  0.50000000       0.016
   0.00000000  0.00000000  0.00000000       0.000
   0.00000000  0.10000000  0.00000000       0.000
   0.00000000  0.20000000  0.00000000       0.000
   0.00000000  0.30000001  0.00000000       0.000
   0.00000000  0.40000001  0.00000000       0.000
   0.00000000  0.50000000  0.00000000       0.000
   0.00000000  0.60000002  0.00000000       0.000
   0.00000000  0.69999999  0.00000000       0.000
   0.00000000  0.80000001  0.00000000       0.000
   0.00000000  0.90000004  0.00000000       0.000
   0.00000000  1.00000000  0.00000000       0.000
   0.07142857  0.92857140  0.00000000       0.000
   0.14285715  0.85714287  0.00000000       0.000
   0.21428570  0.78571427  0.00000000       0.000
   0.28571430  0.71428573  0.00000000       0.000
   0.35714287  0.64285713  0.00000000       0.000
   0.42857140  0.57142860  0.00000000       0.000
   0.50000000  0.50000000  0.00000000       0.000
   0.57142860  0.42857140  0.00000000       0.000
   0.64285719  0.35714281  0.00000000       0.000

 position of ions in fractional coordinates (direct lattice)
   0.00000000  0.00000000  0.00000000
   0.00000000  0.50000000  0.50000000
   0.50000000  0.00000000  0.50000000
   0.50000000  0.50000000  0.00000000
   0.50000000  0.50000000  0.50000000
   0.50000000  0.00000000  0.00000000
   0.00000000  0.50000000  0.00000000
   0.00000000  0.00000000  0.50000000

 position of ions in cartesian coordinates  (Angst):
   0.00000000  0.00000000  0.00000000
   0.00000000  2.82865000  2.82865000
   2.82865000  0.00000000  2.82865000
   2.82865000  2.82865000  0.00000000
   2.82865000  2.82865000  2.82865000
   2.82865000  0.00000000  0.00000000
   0.00000000  2.82865000  0.00000000
   0.00000000  0.00000000  2.82865000

 k-point  1 :   0.0000 0.0000 0.0000  plane waves:    4625
 k-point  2 :   0.2500 0.0000 0.0000  plane waves:    4609
 k-point  3 :   0.5000 0.0000 0.0000  plane waves:    4636
 k-point  4 :   0.2500 0.2500 0.0000  plane waves:    4587
 k-point  5 :   0.5000 0.2500 0.0000  plane waves:    4612
 k-point  6 :   0.5000 0.5000 0.0000  plane waves:    4540
 k-point  7 :   0.2500 0.2500 0.2500  plane waves:    4602
 k-point  8 :   0.5000 0.2500 0.2500  plane waves:    4610
 k-point  9 :   0.5000 0.5000 0.2500  plane waves:    4588
 k-point 10 :   0.5000 0.5000 0.5000  plane waves:    4632
 k-point 11 :   0.0000 0.0000 0.0000  plane waves:    4625
 k-point 12 :   0.0000 0.1000 0.0000  plane waves:    4605
 k-point 13 :   0.0000 0.2000 0.0000  plane waves:    4597
 k-point 14 :   0.0000 0.3000 0.0000  plane waves:    4605
 k-point 15 :   0.0000 0.4000 0.0000  plane waves:    4612
 k-point 16 :   0.0000 0.5000 0.0000  plane waves:    4636
 k-point 17 :   0.0000 0.6000 0.0000  plane waves:    4612
 k-point 18 :   0.0000 0.7000 0.0000  plane waves:    4605
 k-point 19 :   0.0000 0.8000 0.0000  plane waves:    4597
 k-point 20 :   0.0000 0.9000 0.0000  plane waves:    4605
 k-point 21 :   0.0000 1.0000 0.0000  plane waves:    4625
 k-point 22 :   0.0714 0.9286 0.0000  plane waves:    4605
 k-point 23 :   0.1429 0.8571 0.0000  plane waves:    4621
 k-point 24 :   0.2143 0.7857 0.0000  plane waves:    4613
 k-point 25 :   0.2857 0.7143 0.0000  plane waves:    4607
 k-point 26 :   0.3571 0.6429 0.0000  plane waves:    4592
 k-point 27 :   0.4286 0.5714 0.0000  plane waves:    4578
 k-point 28 :   0.5000 0.5000 0.0000  plane waves:    4540
 k-point 29 :   0.5714 0.4286 0.0000  plane waves:    4578
 k-point 30 :   0.6429 0.3571 0.0000  plane waves:    4592

 maximum and minimum number of plane-waves per node :      4636     4540

 maximum number of plane-waves:      4636
 maximum index in each direction:
   IXMAX=   10   IYMAX=   10   IZMAX=   10
   IXMIN=  -10   IYMIN=  -11   IZMIN=  -10

 WARNING: aliasing errors must be expected set NGX to  42 to avoid them
 WARNING: aliasing errors must be expected set NGY to  44 to avoid them
 WARNING: aliasing errors must be expected set NGZ to  42 to avoid them
 aliasing errors are usually negligible using standard VASP settings
 and one can safely disregard these warnings

 serial   3D FFT for wavefunctions
 parallel 3D FFT for charge:
    minimum data exchange during FFTs selected (reduces bandwidth)

 Broyden mixing: mesh for mixing (old mesh)
   NGX = 21   NGY = 21   NGZ = 21
  (NGX  = 64   NGY  = 64   NGZ  = 64)
  gives a total of   9261 points

 initial charge density was supplied:
 charge density of overlapping atoms calculated
 number of electron      32.0000000 magnetization
 keeping initial charge density in first step

 Maximum index for augmentation-charges         8409 (set IRDMAX)

 First call to EWALD:  gamma=   0.313
 Maximum number of real-space cells 3x 3x 3
 Maximum number of reciprocal cells 3x 3x 3

 FEWALD executed in parallel

----------------------------------------- Iteration    1(   1)  ---------------------------------------

 eigenvalue-minimisations  :  1260
 total energy-change (2. order) : 0.2505185E+03  (-0.1127460E+04)
 number of electron      32.0000000 magnetization
 augmentation part       32.0000000 magnetization

 Free energy of the ion-electron system (eV)
  alpha Z        PSCENC =         8.38102479
  Ewald energy   TEWEN  =     -1244.67109162
  -Hartree energ DENC   =      -367.43670187
  -exchange      EXHF   =         0.00000000
  -V(xc)+E(xc)   XCENC  =       -65.24621228
  PAW double counting   =      1460.60681360    -1311.02777745
  entropy T*S    EENTRO =        -0.00546965
  eigenvalues    EBANDS =       110.39406545
  atomic energy  EATOM  =      1659.52381812
  free energy    TOTEN  =       250.51846908 eV

  energy without entropy =      250.52393874  energy(sigma->0) =      250.52120391

[...]

 eigenvalue-minimisations  :  1879
 total energy-change (2. order) :-0.2456426E+03  (-0.2356866E+03)
 number of electron      32.0000000 magnetization
 augmentation part       32.0000000 magnetization

[...]

 Broyden mixing:
  rms(total) = 0.43108E+00    rms(broyden)= 0.43106E+00
  rms(prec ) = 0.93809E+00
  weight for this iteration     100.00

[...]

 eigenvalues of (default mixing * dielectric matrix)
  average eigenvalue GAMMA=   0.9738
  0.9738

[...]

 eigenvalue-minimisations  :  1490
 total energy-change (2. order) :-0.1053901E-05  (-0.1053960E-05)
 number of electron      32.0000043 magnetization
 augmentation part       -3.7392922 magnetization

 Broyden mixing:
  rms(total) = 0.97777E-04    rms(broyden)= 0.97773E-04
  rms(prec ) = 0.11761E-03
  weight for this iteration     100.00

 eigenvalues of (default mixing * dielectric matrix)
  average eigenvalue GAMMA=   1.6539
  3.0649  2.8127  2.4113  1.1939  1.0574  1.0574  0.8169  0.8169

[...]

----------------------------------------- Iteration    1(  14)  ---------------------------------------

 eigenvalue-minimisations  :  1005
 total energy-change (2. order) : 0.1164231E-06  (-0.1037835E-07)
 number of electron      32.0000043 magnetization
 augmentation part       -3.7392922 magnetization

 Free energy of the ion-electron system (eV)
  alpha Z        PSCENC =         8.38102479
  Ewald energy   TEWEN  =     -1244.67109162
  -Hartree energ DENC   =      -400.76133955
  -exchange      EXHF   =         0.00000000
  -V(xc)+E(xc)   XCENC  =       -61.92657417
  PAW double counting   =      2004.45540125    -1855.79071029
  entropy T*S    EENTRO =        -0.00000000
  eigenvalues    EBANDS =      -136.46949670
  atomic energy  EATOM  =      1659.52381812
  free energy    TOTEN  =       -27.25896817 eV

  energy without entropy =      -27.25896817  energy(sigma->0) =      -27.25896817

 the core state eigenenergies are
   1-  1s  -1026.6288  2s    -49.6643  2p    -21.5750
   2-  1s  -1026.6288  2s    -49.6643  2p    -21.5750
   3-  1s  -1026.6288  2s    -49.6643  2p    -21.5750
   4-  1s  -1026.6288  2s    -49.6643  2p    -21.5750
   5-  1s  -2742.2334  2s   -243.9155  2p   -182.8241
   6-  1s  -2742.2334  2s   -243.9155  2p   -182.8241
   7-  1s  -2742.2334  2s   -243.9155  2p   -182.8241
   8-  1s  -2742.2334  2s   -243.9155  2p   -182.8241

 E-fermi :  -0.0982     XC(G=0):  -7.9294     alpha+bet : -8.2173

 k-point     1 :       0.0000    0.0000    0.0000
  band No.  band energies     occupation
      1     -13.2151      2.00000
      2     -12.8403      2.00000
      3     -12.8403      2.00000
      4     -12.8403      2.00000
      5      -2.2371      2.00000
      6      -2.2371      2.00000
      7      -2.2371      2.00000
      8      -1.1748      2.00000
      9      -1.1748      2.00000
     10      -1.1748      2.00000
     11      -1.1748      2.00000
     12      -1.1748      2.00000
     13      -1.1748      2.00000
     14      -0.5804      2.00000
     15      -0.5804      2.00000
     16      -0.5804      2.00000
     17       4.4804      0.00000
     18       6.9104      0.00000
     19       6.9104      0.00000
     20       6.9104      0.00000
     21       7.5060      0.00000

[...]

 k-point    30 :       0.6429    0.3571    0.0000
  band No.  band energies     occupation
      1     -13.0273      2.00000
      2     -12.9080      2.00000
      3     -12.9080      2.00000
      4     -12.8596      2.00000
      5      -2.0153      2.00000
      6      -2.0153      2.00000
      7      -1.9327      2.00000
      8      -1.7420      2.00000
      9      -1.7249      2.00000
     10      -1.3309      2.00000
     11      -1.3309      2.00000
     12      -1.0030      2.00000
     13      -0.9757      2.00000
     14      -0.9608      2.00000
     15      -0.9608      2.00000
     16      -0.7138      2.00000
     17       6.4834      0.00000
     18       7.7248      0.00000
     19       7.7248      0.00000
     20       8.0125      0.00000
     21       8.7102      0.00000

 soft charge-density along one line, spin component           1
         0         1         2         3         4         5         6         7         8         9
 total charge-density along one line

------------------------ aborting loop because EDIFF is reached ----------------------------------------

 total charge

# of ion     s       p       d       tot
  1        0.042   0.033   0.000   0.075
  2        0.042   0.033   0.000   0.075
  3        0.042   0.033   0.000   0.075
  4        0.042   0.033   0.000   0.075
  5        1.587   3.583   0.000   5.171
  6        1.587   3.583   0.000   5.171
  7        1.587   3.583   0.000   5.171
  8        1.587   3.583   0.000   5.171
tot        6.515  14.465   0.000  20.981

  FORCE on cell =-STRESS in cart. coord.  units (eV):
  Direction    XX          YY          ZZ          XY          YZ          ZX
  Alpha Z     8.38102     8.38102     8.38102
  Ewald    -414.89070  -414.89070  -414.89070    -0.00000     0.00000    -0.00000
  Hartree   133.58962   133.58962   133.58962    -0.00000    -0.00000    -0.00000
  E(xc)    -114.38696  -114.38696  -114.38696    -0.00000     0.00000     0.00000
  Local    -349.07888  -349.07888  -349.07888     0.00000     0.00000    -0.00000
  n-local   336.85975   337.61647   337.89294    -0.28562    -0.26196    -0.10859
  augment   -77.36522   -77.36522   -77.36522    -0.00000    -0.00000     0.00000
  Kinetic   473.35922   476.86110   478.39744    -0.80292    -0.76782    -0.31293
  Fock        0.00000     0.00000     0.00000     0.00000     0.00000     0.00000
  Total      -0.08881    -0.08881    -0.08881    -0.00000    -0.00000     0.00000
  in kB      -0.78582    -0.78582    -0.78582    -0.00000    -0.00000     0.00000

 VOLUME and BASIS-vectors are now :
  energy-cutoff  :      500.00
  volume of cell :      181.06
      direct lattice vectors                 reciprocal lattice vectors
     5.657299995  0.000000000  0.000000000     0.176762767  0.000000000  0.000000000
     0.000000000  5.657299995  0.000000000     0.000000000  0.176762767  0.000000000
     0.000000000  0.000000000  5.657299995     0.000000000  0.000000000  0.176762767

  length of vectors
     5.657299995  5.657299995  5.657299995     0.176762767  0.176762767  0.176762767

 FORCES acting on ions
    electron-ion (+dipol)            ewald-force                    non-local-force                 convergence-correction
   0.403E-14 0.321E-14 -.958E-14   0.489E-16 -.605E-15 0.989E-16   0.000E+00 0.310E-24 -.827E-24   0.897E-16 -.130E-15 -.124E-15
   0.334E-14 0.271E-14 -.115E-13   0.486E-16 -.305E-15 0.382E-15   0.000E+00 0.000E+00 -.827E-24   0.103E-15 0.459E-17 0.885E-16
   0.284E-14 0.298E-14 0.678E-12   0.324E-15 -.610E-15 0.383E-15   0.517E-24 0.000E+00 -.853E-24   -.190E-15 -.125E-15 0.139E-15
   0.258E-14 0.283E-12 0.187E-12   0.324E-15 -.310E-15 0.549E-16   -.165E-23 0.000E+00 0.827E-24   -.178E-15 0.124E-16 -.953E-16
   0.678E-13 0.845E-12 0.300E-12   0.395E-14 0.345E-14 -.505E-15   -.827E-23 -.703E-23 -.662E-23   -.753E-14 -.509E-14 0.168E-13
   0.680E-13 -.115E-13 -.146E-11   0.384E-14 -.337E-14 -.132E-14   -.165E-23 -.662E-23 0.000E+00   -.659E-14 -.843E-14 0.977E-14
   -.687E-14 0.671E-13 0.173E-13   -.422E-14 0.406E-14 -.131E-14   -.588E-24 0.000E+00 0.000E+00   0.234E-15 -.324E-14 0.143E-13
   -.691E-14 -.778E-14 0.915E-13   -.433E-14 -.275E-14 0.213E-14   -.827E-24 -.331E-23 0.103E-23   0.846E-15 -.616E-14 0.186E-13
   0.135E-12 0.118E-11 -.206E-12   -.238E-17 -.439E-15 -.891E-16   -.125E-22 -.166E-22 -.726E-23   -.132E-13 -.232E-13 0.594E-13

 POSITION                                       TOTAL-FORCE (eV/Angst)
      0.00000      0.00000      0.00000        -0.000000     -0.000000      0.000000
      0.00000      2.82865      2.82865         0.000000     -0.000000      0.000000
      2.82865      0.00000      2.82865         0.000000     -0.000000     -0.000000
      2.82865      2.82865      0.00000         0.000000     -0.000000      0.000000
      2.82865      2.82865      2.82865        -0.000000     -0.000000     -0.000000
      2.82865      0.00000      0.00000         0.000000      0.000000     -0.000000
      0.00000      2.82865      0.00000         0.000000      0.000000     -0.000000
      0.00000      0.00000      2.82865        -0.000000      0.000000      0.000000
    total drift:                                0.000000      0.000000     -0.000000

  FREE ENERGIE OF THE ION-ELECTRON SYSTEM (eV)
  free  energy   TOTEN  =       -27.25896817 eV

  energy  without entropy=      -27.25896817  energy(sigma->0) =      -27.25896817

 writing wavefunctions

 total charge

# of ion     s       p       d       tot
  1        0.042   0.033   0.000   0.075
  2        0.042   0.033   0.000   0.075
  3        0.042   0.033   0.000   0.075
  4        0.042   0.033   0.000   0.075
  5        1.587   3.583   0.000   5.171
  6        1.587   3.583   0.000   5.171
  7        1.587   3.583   0.000   5.171
  8        1.587   3.583   0.000   5.171
tot        6.515  14.465   0.000  20.981