 vasp.5.3.5 31Mar14 (build Apr 15 2015 10:45:18) complex

 executed on             LinuxIFC date 2016.02.04  19:15:35

 INCAR:
 POTCAR:    PAW_PBE Ga_d 06Jul2010
 POTCAR:    PAW_PBE As 22Sep2009

 POTCAR:    PAW_PBE Ga_d 06Jul2010
   VRHFIN =Ga: s2p1

   TITEL  = PAW_PBE Ga_d 06Jul2010
   POMASS =   69.723; ZVAL   =   13.000    mass and valenz
   ENMAX  =  282.691; ENMIN  =  212.018 eV

 POTCAR:    PAW_PBE As 22Sep2009
   VRHFIN =As: s2p3

   TITEL  = PAW_PBE As 22Sep2009
   POMASS =   74.922; ZVAL   =    5.000    mass and valenz
   ENMAX  =  208.702; ENMIN  =  156.526 eV

  PAW_PBE Ga_d 06Jul2010                :
  PAW_PBE As 22Sep2009                  :

 POSCAR: GaAs (Madelung Handbook, RT)
  positions in direct lattice
  velocities in cartesian coordinates
 exchange correlation table for  LEXCH =       14
   RHO(1)=    0.500       N(1)  =     2000
   RHO(2)=  100.500       N(2)  =     4000

 ion  position               nearest neighbor table
   1  0.000  0.000  0.000-   2 2.45   2 2.45   2 2.45   2 2.45
   2  0.250  0.250  0.250-   1 2.45   1 2.45   1 2.45   1 2.45

  LATTYP: Found a face centered cubic cell.
 ALAT       =     5.6536000000

  Lattice vectors:

 A1 = (   2.8268000000,   2.8268000000,   0.0000000000)
 A2 = (   2.8268000000,   0.0000000000,  -2.8268000000)
 A3 = (   0.0000000000,   2.8268000000,  -2.8268000000)

Analysis of symmetry for initial positions (statically):
 Subroutine PRICEL returns:
 Original cell was already a primitive cell.

 Routine SETGRP: Setting up the symmetry group for a
 face centered cubic supercell.

 Subroutine GETGRP returns: Found 24 space group operations
 (whereof 24 operations were pure point group operations)
 out of a pool of 48 trial point group operations.

The static configuration has the point symmetry T_d .

Analysis of symmetry for dynamics (positions and initial velocities):
 Subroutine PRICEL returns:
 Original cell was already a primitive cell.

 Routine SETGRP: Setting up the symmetry group for a
 face centered cubic supercell.

 Subroutine GETGRP returns: Found 24 space group operations
 (whereof 24 operations were pure point group operations)
 out of a pool of 48 trial point group operations.

The dynamic configuration has the point symmetry T_d .

 KPOINTS: Automatically generated mesh
  k-points in reciprocal lattice
Space group operators:
 irot       det(A)        alpha          n_x          n_y          n_z        tau_x        tau_y        tau_z
    1     1.000000     0.000000     1.000000     0.000000     0.000000     0.000000     0.000000     0.000000
    2     1.000000   120.000000    -0.577350    -0.577350     0.577350     0.000000     0.000000     0.000000
    3     1.000000   120.000000     0.577350     0.577350    -0.577350     0.000000     0.000000     0.000000
    4    -1.000000    90.000000    -1.000000     0.000000     0.000000     0.000000     0.000000     0.000000
    5    -1.000000   180.000000     0.707107     0.707107     0.000000     0.000000     0.000000     0.000000
    6    -1.000000    90.000000     0.000000     1.000000     0.000000     0.000000     0.000000     0.000000
    7     1.000000   180.000000     1.000000     0.000000     0.000000     0.000000     0.000000     0.000000
    8     1.000000   120.000000     0.577350     0.577350     0.577350     0.000000     0.000000     0.000000
    9     1.000000   120.000000    -0.577350     0.577350     0.577350     0.000000     0.000000     0.000000
   10    -1.000000    90.000000     1.000000     0.000000     0.000000     0.000000     0.000000     0.000000
   11    -1.000000    90.000000     0.000000     0.000000     1.000000     0.000000     0.000000     0.000000
   12    -1.000000   180.000000     0.707107     0.000000    -0.707107     0.000000     0.000000     0.000000
   13     1.000000   120.000000     0.577350    -0.577350    -0.577350     0.000000     0.000000     0.000000
   14     1.000000   120.000000     0.577350    -0.577350     0.577350     0.000000     0.000000     0.000000
   15     1.000000   180.000000     0.000000     0.000000     1.000000     0.000000     0.000000     0.000000
   16    -1.000000    90.000000     0.000000    -1.000000     0.000000     0.000000     0.000000     0.000000
   17    -1.000000   180.000000     0.000000    -0.707107     0.707107     0.000000     0.000000     0.000000
   18    -1.000000    90.000000     0.000000     0.000000    -1.000000     0.000000     0.000000     0.000000
   19     1.000000   120.000000    -0.577350    -0.577350    -0.577350     0.000000     0.000000     0.000000
   20     1.000000   180.000000     0.000000     1.000000     0.000000     0.000000     0.000000     0.000000
   21     1.000000   120.000000    -0.577350     0.577350    -0.577350     0.000000     0.000000     0.000000
   22    -1.000000   180.000000     0.707107    -0.707107     0.000000     0.000000     0.000000     0.000000
   23    -1.000000   180.000000     0.000000     0.707107     0.707107     0.000000     0.000000     0.000000
   24    -1.000000   180.000000     0.707107     0.000000     0.707107     0.000000     0.000000     0.000000

 I would recommend the setting:
   dimension x,y,z NGX =    29 NGY =   29 NGZ =   29
 SYSTEM =  Name
 POSCAR =  GaAs (Madelung Handbook, RT)

 Startparameter for this run:
   NWRITE =      2    write-flag & timer
   PREC   = accura    normal or accurate (medium, high low for compatibility)
   ISTART =      0    job   : 0-new  1-cont  2-samecut
   ICHARG =     11    charge: 1-file 2-atom 10-const
   ISPIN  =      1    spin polarized calculation?
   LNONCOLLINEAR =      F non collinear calculations
   LSORBIT =      F    spin-orbit coupling
   INIWAV =      1    electr: 0-lowe 1-rand  2-diag
   LASPH  =      F    aspherical Exc in radial PAW
   METAGGA=      F    non-selfconsistent MetaGGA calc.

 Electronic Relaxation 1
   ENCUT  =  500.0 eV  36.75 Ry    6.06 a.u.   7.29  7.29  7.29*2*pi/ulx,y,z
   ENINI  =  500.0     initial cutoff
   ENAUG  =  490.7 eV  augmentation charge cutoff
   NELM   =     60;   NELMIN=  2; NELMDL=  0     # of ELM steps
   EDIFF  = 0.1E-05   stopping-criterion for ELM
   LREAL  =      F    real-space projection
   NLSPLINE    = F    spline interpolate recip. space projectors
   LCOMPAT=      F    compatible to vasp.4.4
   GGA_COMPAT  = T    GGA compatible to vasp.4.4-vasp.4.6
   LMAXPAW     = -100 max onsite density
   LMAXMIX     =    2 max onsite mixed and CHGCAR
   VOSKOWN=      0    Vosko Wilk Nusair interpolation
   ROPT   =    0.00000   0.00000
 Ionic relaxation
   EDIFFG = -.5E-02   stopping-criterion for IOM
   NSW    =      1    number of steps for IOM
   NBLOCK =      1;   KBLOCK =      1    inner block; outer block
   IBRION =      2    ionic relax: 0-MD 1-quasi-New 2-CG
   NFREE  =      1    steps in history (QN), initial steepest desc. (CG)
   ISIF   =      3    stress and relaxation
   IWAVPR =     11    prediction:  0-non 1-charg 2-wave 3-comb
   ISYM   =      2    0-nonsym 1-usesym 2-fastsym
   LCORR  =      T    Harris-Foulkes like correction to forces

   POTIM  = 0.5000    time-step for ionic-motion
   TEIN   =    0.0    initial temperature
   TEBEG  =    0.0;   TEEND  =   0.0 temperature during run
   SMASS  =  -3.00    Nose mass-parameter (am)
   estimated Nose-frequenzy (Omega)   =  0.10E-29 period in steps =****** mass=  -0.365E-27a.u.
   SCALEE = 1.0000    scale energy and forces
   NPACO  =    256;   APACO  = 16.0  distance and # of slots for P.C.
   PSTRESS=    0.0 pullay stress

  Mass of Ions in am
   POMASS =  69.72 74.92
  Ionic Valenz
   ZVAL   =  13.00  5.00
  Atomic Wigner-Seitz radii
  virtual crystal weights
   VCA    =   1.00  1.00
   NELECT =      18.0000    total number of electrons
   NUPDOWN=      -1.0000    fix difference up-down

 DOS related values:
   EMIN   =  10.00;   EMAX   =-10.00  energy-range for DOS
   EFERMI =   0.00
   ISMEAR =     0;   SIGMA  =   0.01  broadening in eV -4-tet -1-fermi 0-gaus

 Electronic relaxation 2 (details)
   IALGO  =     38    algorithm
   LDIAG  =      T    sub-space diagonalisation (order eigenvalues)
   LSUBROT=      F    optimize rotation matrix (better conditioning)
   TURBO    =      0    0=normal 1=particle mesh
   IRESTART =      0    0=no restart 2=restart with 2 vectors
   NREBOOT  =      0    no. of reboots
   NMIN     =      0    reboot dimension
   EREF     =   0.00    reference energy to select bands
   IMIX   =      4    mixing-type and parameters
     AMIX     =   0.40;   BMIX     =  1.00
     AMIX_MAG =   1.60;   BMIX_MAG =  1.00
     AMIN     =   0.01
     WC   =   100.;   INIMIX=   1;  MIXPRE=   1;  MAXMIX= -45

 Intra band minimization:
   WEIMIN = 0.0010     energy-eigenvalue tresh-hold
   EBREAK =  0.16E-07  absolut break condition
   DEPER  =   0.30     relativ break condition

   TIME   =   0.40     timestep for ELM

  volume/ion in A,a.u.               =      22.59       152.43
  Fermi-wavevector in a.u.,A,eV,Ry     =   1.204649  2.276457 19.744497  1.451180
  Thomas-Fermi vector in A             =   2.340368

 Write flags
   LWAVE  =      T    write WAVECAR
   LCHARG =      T    write CHGCAR
   LVTOT  =      F    write LOCPOT, total local potential
   LVHAR  =      F    write LOCPOT, Hartree potential only
   LELF   =      F    write electronic localiz. function (ELF)
   LORBIT =     10    0 simple, 1 ext, 2 COOP (PROOUT)

 Dipole corrections
   LMONO  =      F    monopole corrections only (constant potential shift)
   LDIPOL =      F    correct potential (dipole corrections)
   IDIPOL =      0    1-x, 2-y, 3-z, 4-all directions
   EPSILON=  1.0000000 bulk dielectric constant

 Core level calculations are selected ICORELEVEL =  1
 Exchange correlation treatment:
   GGA     =    PS    GGA type
   VOSKOWN=      0    Vosko Wilk Nusair interpolation
   LHFCALC =     F    Hartree Fock is set to
   LHFONE  =     F    Hartree Fock one center treatment
   AEXX    =    0.0000 exact exchange contribution

 Linear response parameters
   LEPSILON=     F    determine dielectric tensor
   LRPA    =     F    only Hartree local field effects (RPA)
   LNABLA  =     F    use nabla operator in PAW spheres
   LVEL    =     F    velocity operator in full k-point grid
   LINTERFAST=   F  fast interpolation
   KINTER  =     0    interpolate to denser k-point grid
   CSHIFT  =0.1000    complex shift for real part using Kramers Kronig
   OMEGAMAX=  -1.0    maximum frequency
   DEG_THRESHOLD= 0.2000000E-02 threshold for treating states as degnerate
   RTIME   =    0.100 relaxation time in fs

 Orbital magnetization related:
   ORBITALMAG=     F  switch on orbital magnetization
   LCHIMAG   =     F  perturbation theory with respect to B field
   DQ        =  0.001000  dq finite difference perturbation B field

 conjugate gradient relaxation of ions
 charge density and potential remain constant during run
 non-spin polarized calculation
 Variant of blocked Davidson
 Davidson routine will perform the subspace rotation
 perform sub-space diagonalisation
    after iterative eigenvector-optimisation
 no mixing
 using additional bands            7
 reciprocal scheme for non local part
 use partial core corrections
 calculate Harris-corrections to forces
   (improved forces if not selfconsistent)
[...]
   1.41340000  1.41340000 -1.41340000

 k-point  1 :   0.0000 0.0000 0.0000  plane waves:    1139
 k-point  2 :   0.1667 0.0000 0.0000  plane waves:    1167
 k-point  3 :   0.3333 0.0000 0.0000  plane waves:    1149
 k-point  4 :   0.5000 0.0000 0.0000  plane waves:    1158
 k-point  5 :   0.1667 0.1667 0.0000  plane waves:    1154
 k-point  6 :   0.3333 0.1667 0.0000  plane waves:    1137
 k-point  7 :   0.5000 0.1667 0.0000  plane waves:    1145
 k-point  8 :  -0.3333 0.1667 0.0000  plane waves:    1144
 k-point  9 :  -0.1667 0.1667 0.0000  plane waves:    1147
 k-point 10 :   0.3333 0.3333 0.0000  plane waves:    1150
 k-point 11 :   0.5000 0.3333 0.0000  plane waves:    1149
 k-point 12 :  -0.3333 0.3333 0.0000  plane waves:    1141
 k-point 13 :   0.5000 0.5000 0.0000  plane waves:    1162
 k-point 14 :   0.5000 0.3333 0.1667  plane waves:    1151
 k-point 15 :  -0.3333 0.3333 0.1667  plane waves:    1144
 k-point 16 :  -0.3333 0.5000 0.1667  plane waves:    1142
 k-point 17 :   0.0000 0.0000 0.0000  plane waves:    1139
 k-point 18 :   0.0050 0.0000 0.0050  plane waves:    1139
 k-point 19 :   0.0100 0.0000 0.0100  plane waves:    1139
 k-point 20 :   0.0150 0.0000 0.0150  plane waves:    1139
 k-point 21 :   0.0200 0.0000 0.0200  plane waves:    1139
 k-point 22 :   0.0250 0.0000 0.0250  plane waves:    1147
 k-point 23 :   0.0300 0.0000 0.0300  plane waves:    1155
 k-point 24 :   0.0350 0.0000 0.0350  plane waves:    1155
 k-point 25 :   0.0400 0.0000 0.0400  plane waves:    1163
 k-point 26 :   0.0450 0.0000 0.0450  plane waves:    1167
 k-point 27 :   0.0500 0.0000 0.0500  plane waves:    1167
 k-point 28 :   0.0550 0.0000 0.0550  plane waves:    1167
 k-point 29 :   0.0600 0.0000 0.0600  plane waves:    1163
 k-point 30 :   0.0650 0.0000 0.0650  plane waves:    1167
 k-point 31 :   0.0700 0.0000 0.0700  plane waves:    1159
 k-point 32 :   0.0750 0.0000 0.0750  plane waves:    1163
 k-point 33 :   0.0800 0.0000 0.0800  plane waves:    1163
 k-point 34 :   0.0850 0.0000 0.0850  plane waves:    1163
 k-point 35 :   0.0900 0.0000 0.0900  plane waves:    1163
 k-point 36 :   0.0950 0.0000 0.0950  plane waves:    1155
 k-point 37 :   0.1000 0.0000 0.1000  plane waves:    1155
 k-point 38 :   0.1050 0.0000 0.1050  plane waves:    1155
 k-point 39 :   0.1100 0.0000 0.1100  plane waves:    1155
 k-point 40 :   0.1150 0.0000 0.1150  plane waves:    1155
 k-point 41 :   0.1200 0.0000 0.1200  plane waves:    1155
 k-point 42 :   0.1250 0.0000 0.1250  plane waves:    1155
 k-point 43 :   0.1300 0.0000 0.1300  plane waves:    1155
 k-point 44 :   0.1350 0.0000 0.1350  plane waves:    1155
 k-point 45 :   0.1400 0.0000 0.1400  plane waves:    1155
 k-point 46 :   0.1450 0.0000 0.1450  plane waves:    1155
 k-point 47 :   0.1500 0.0000 0.1500  plane waves:    1155
 k-point 48 :   0.1550 0.0000 0.1550  plane waves:    1154
 k-point 49 :   0.1600 0.0000 0.1600  plane waves:    1154
 k-point 50 :   0.1650 0.0000 0.1650  plane waves:    1154
 k-point 51 :   0.1700 0.0000 0.1700  plane waves:    1154
 k-point 52 :   0.1750 0.0000 0.1750  plane waves:    1154
 k-point 53 :   0.1800 0.0000 0.1800  plane waves:    1154
 k-point 54 :   0.1850 0.0000 0.1850  plane waves:    1154
 k-point 55 :   0.1900 0.0000 0.1900  plane waves:    1154
 k-point 56 :   0.1950 0.0000 0.1950  plane waves:    1150
 k-point 57 :   0.2000 0.0000 0.2000  plane waves:    1146
 k-point 58 :   0.2050 0.0000 0.2050  plane waves:    1146
 k-point 59 :   0.2100 0.0000 0.2100  plane waves:    1146
 k-point 60 :   0.2150 0.0000 0.2150  plane waves:    1146
[...]
 k-point 85 :   0.3400 0.0000 0.3400  plane waves:    1142
 k-point 86 :   0.3450 0.0000 0.3450  plane waves:    1142
 k-point 87 :   0.3500 0.0000 0.3500  plane waves:    1142
 k-point 88 :   0.3550 0.0000 0.3550  plane waves:    1142
 k-point 89 :   0.3600 0.0000 0.3600  plane waves:    1150
 k-point 90 :   0.3650 0.0000 0.3650  plane waves:    1150
 k-point 91 :   0.3700 0.0000 0.3700  plane waves:    1150
 k-point 92 :   0.3750 0.0000 0.3750  plane waves:    1150
 k-point 93 :   0.3800 0.0000 0.3800  plane waves:    1150
 k-point 94 :   0.3850 0.0000 0.3850  plane waves:    1150
 k-point 95 :   0.3900 0.0000 0.3900  plane waves:    1150
 k-point 96 :   0.3950 0.0000 0.3950  plane waves:    1154
 k-point 97 :   0.4000 0.0000 0.4000  plane waves:    1154
 k-point 98 :   0.4050 0.0000 0.4050  plane waves:    1154
 k-point 99 :   0.4100 0.0000 0.4100  plane waves:    1146
 k-point ** :   0.4150 0.0000 0.4150  plane waves:    1146
 k-point ** :   0.4200 0.0000 0.4200  plane waves:    1146
 k-point ** :   0.4250 0.0000 0.4250  plane waves:    1146
 k-point ** :   0.4300 0.0000 0.4300  plane waves:    1146
 k-point ** :   0.4350 0.0000 0.4350  plane waves:    1146
 k-point ** :   0.4400 0.0000 0.4400  plane waves:    1154
 k-point ** :   0.4450 0.0000 0.4450  plane waves:    1154
 k-point ** :   0.4500 0.0000 0.4500  plane waves:    1154
 k-point ** :   0.4550 0.0000 0.4550  plane waves:    1154
 k-point ** :   0.4600 0.0000 0.4600  plane waves:    1154
 k-point ** :   0.4650 0.0000 0.4650  plane waves:    1154
 k-point ** :   0.4700 0.0000 0.4700  plane waves:    1154
 k-point ** :   0.4750 0.0000 0.4750  plane waves:    1154
 k-point ** :   0.4800 0.0000 0.4800  plane waves:    1154
 k-point ** :   0.4850 0.0000 0.4850  plane waves:    1162
 k-point ** :   0.4900 0.0000 0.4900  plane waves:    1162
 k-point ** :   0.4950 0.0000 0.4950  plane waves:    1162
 k-point ** :   0.5000 0.0000 0.5000  plane waves:    1162
 k-point ** :   0.5000 0.0064 0.5032  plane waves:    1162
 k-point ** :   0.5000 0.0128 0.5064  plane waves:    1154
 k-point ** :   0.5000 0.0192 0.5096  plane waves:    1153
 k-point ** :   0.5000 0.0256 0.5128  plane waves:    1153
 k-point ** :   0.5000 0.0321 0.5160  plane waves:    1153
 k-point ** :   0.5000 0.0385 0.5192  plane waves:    1151
 k-point ** :   0.5000 0.0449 0.5224  plane waves:    1148
 k-point ** :   0.5000 0.0513 0.5256  plane waves:    1145
 k-point ** :   0.5000 0.0577 0.5288  plane waves:    1144
 k-point ** :   0.5000 0.0641 0.5321  plane waves:    1142
 k-point ** :   0.5000 0.0705 0.5353  plane waves:    1142
 k-point ** :   0.5000 0.0769 0.5385  plane waves:    1141
 k-point ** :   0.5000 0.0833 0.5417  plane waves:    1138
 k-point ** :   0.5000 0.0897 0.5449  plane waves:    1140
 k-point ** :   0.5000 0.0962 0.5481  plane waves:    1141
 k-point ** :   0.5000 0.1026 0.5513  plane waves:    1141
 k-point ** :   0.5000 0.1090 0.5545  plane waves:    1143
 k-point ** :   0.5000 0.1154 0.5577  plane waves:    1144
 k-point ** :   0.5000 0.1218 0.5609  plane waves:    1146
 k-point ** :   0.5000 0.1282 0.5641  plane waves:    1147
 k-point ** :   0.5000 0.1346 0.5673  plane waves:    1147
 k-point ** :   0.5000 0.1410 0.5705  plane waves:    1147
 k-point ** :   0.5000 0.1474 0.5737  plane waves:    1148
 k-point ** :   0.5000 0.1538 0.5769  plane waves:    1148
 k-point ** :   0.5000 0.1603 0.5801  plane waves:    1149
 k-point ** :   0.5000 0.1667 0.5833  plane waves:    1148
 k-point ** :   0.5000 0.1731 0.5865  plane waves:    1146
 k-point ** :   0.5000 0.1795 0.5897  plane waves:    1145
 k-point ** :   0.5000 0.1859 0.5929  plane waves:    1145
 k-point ** :   0.5000 0.1923 0.5962  plane waves:    1145
 k-point ** :   0.5000 0.1987 0.5994  plane waves:    1149
 k-point ** :   0.5000 0.2051 0.6026  plane waves:    1149
 k-point ** :   0.5000 0.2115 0.6058  plane waves:    1147
 k-point ** :   0.5000 0.2179 0.6090  plane waves:    1148
 k-point ** :   0.5000 0.2244 0.6122  plane waves:    1150
 k-point ** :   0.5000 0.2308 0.6154  plane waves:    1150
 k-point ** :   0.5000 0.2372 0.6186  plane waves:    1150
 k-point ** :   0.5000 0.2436 0.6218  plane waves:    1150
 k-point ** :   0.5000 0.2500 0.6250  plane waves:    1153
 k-point ** :   0.4958 0.2542 0.6292  plane waves:    1151
 k-point ** :   0.4917 0.2583 0.6333  plane waves:    1152
 k-point ** :   0.4875 0.2625 0.6375  plane waves:    1152
[...]
 k-point ** :   0.4186 0.4186 0.6628  plane waves:    1147
 k-point ** :   0.4157 0.4157 0.6686  plane waves:    1144
 k-point ** :   0.4128 0.4128 0.6744  plane waves:    1144
 k-point ** :   0.4099 0.4099 0.6802  plane waves:    1144
 k-point ** :   0.4070 0.4070 0.6860  plane waves:    1142
 k-point ** :   0.4041 0.4041 0.6919  plane waves:    1142
 k-point ** :   0.4012 0.4012 0.6977  plane waves:    1140
 k-point ** :   0.3983 0.3983 0.7035  plane waves:    1140
 k-point ** :   0.3953 0.3953 0.7093  plane waves:    1142
 k-point ** :   0.3924 0.3924 0.7151  plane waves:    1141
 k-point ** :   0.3895 0.3895 0.7209  plane waves:    1141
 k-point ** :   0.3866 0.3866 0.7267  plane waves:    1139
 k-point ** :   0.3837 0.3837 0.7326  plane waves:    1138
 k-point ** :   0.3808 0.3808 0.7384  plane waves:    1138
 k-point ** :   0.3779 0.3779 0.7442  plane waves:    1140

 maximum and minimum number of plane-waves per node :      1174     1135

 maximum number of plane-waves:      1174
 maximum index in each direction:
   IXMAX=    7   IYMAX=    7   IZMAX=    7
   IXMIN=   -7   IYMIN=   -7   IZMIN=   -8

 NGX is ok and might be reduce to  30
 NGY is ok and might be reduce to  30
 WARNING: aliasing errors must be expected set NGZ to  32 to avoid them
 aliasing errors are usually negligible using standard VASP settings
 and one can safely disregard these warnings

 serial   3D FFT for wavefunctions
 parallel 3D FFT for charge:
    minimum data exchange during FFTs selected (reduces bandwidth)

 initial charge density was supplied:
 number of electron      17.9999995 magnetization
 keeping initial charge density in first step

 Maximum index for augmentation-charges         6012 (set IRDMAX)

 First call to EWALD:  gamma=   0.498
 Maximum number of real-space cells 3x 3x 3
 Maximum number of reciprocal cells 3x 3x 3

 FEWALD executed in parallel

----------------------------------------- Iteration    1(   1)  ---------------------------------------

 eigenvalue-minimisations  : 19624
 total energy-change (2. order) : 0.8120876E+02  (-0.8858659E+03)
 number of electron      17.9999995 magnetization
 augmentation part       17.9999995 magnetization

 Free energy of the ion-electron system (eV)
  alpha Z        PSCENC =        60.29112737
  Ewald energy   TEWEN  =     -1265.50193243
  -Hartree energ DENC   =      -721.31223035
  -exchange      EXHF   =         0.00000000
  -V(xc)+E(xc)   XCENC  =        33.97910930
  PAW double counting   =      2009.32588363    -2322.35270446
  entropy T*S    EENTRO =        -0.00057134
  eigenvalues    EBANDS =       -31.10371183
  atomic energy  EATOM  =      2317.88379254
  free energy    TOTEN  =        81.20876243 eV

  energy without entropy =       81.20933377  energy(sigma->0) =       81.20904810

[...]

 eigenvalue-minimisations  : 21760
 total energy-change (2. order) :-0.8356888E+02  (-0.7924747E+02)
 number of electron      17.9999995 magnetization
 augmentation part       17.9999995 magnetization

[...]

----------------------------------------- Iteration    1(   7)  ---------------------------------------

 eigenvalue-minimisations  : 21816
 total energy-change (2. order) :-0.5989023E-06  (-0.5988663E-06)
 number of electron      17.9999995 magnetization
 augmentation part       17.9999995 magnetization

 Free energy of the ion-electron system (eV)
  alpha Z        PSCENC =        60.29112737
  Ewald energy   TEWEN  =     -1265.50193243
  -Hartree energ DENC   =      -721.31223035
  -exchange      EXHF   =         0.00000000
  -V(xc)+E(xc)   XCENC  =        33.97910930
  PAW double counting   =      2009.32588363    -2322.35270446
  entropy T*S    EENTRO =        -0.00000000
  eigenvalues    EBANDS =      -121.37954613
  atomic energy  EATOM  =      2317.88379254
  free energy    TOTEN  =        -9.06650053 eV

  energy without entropy =       -9.06650053  energy(sigma->0) =       -9.06650053

 the core state eigenenergies are
   1-  1s -10220.5895  2s  -1253.9869  2p  -1090.4537  3s   -139.8753  3p    -90.6019

   2-  1s -11708.0727  2s  -1476.6638  2p  -1293.4882  3s   -180.6521  3p   -124.0326
       3d    -31.0631

 E-fermi :   3.8673     XC(G=0):  -9.7690     alpha+bet : -9.7375

 k-point     1 :       0.0000    0.0000    0.0000
  band No.  band energies     occupation
      1     -10.9731      2.00000
      2     -10.9731      2.00000
      3     -10.9731      2.00000
      4     -10.8918      2.00000
      5     -10.8918      2.00000
      6      -8.9396      2.00000
      7       3.8134      2.00000
      8       3.8134      2.00000
      9       3.8134      2.00000
     10       4.2670      0.00000
     11       7.4972      0.00000
     12       7.4972      0.00000
     13       7.4972      0.00000
     14      11.2000      0.00000
     15      13.9180      0.00000
     16      13.9180      0.00000

[...]

 k-point   597 :       0.3779    0.3779    0.7442
  band No.  band energies     occupation
      1     -11.0738      2.00000
      2     -10.9378      2.00000
      3     -10.9307      2.00000
      4     -10.9058      2.00000
      5     -10.8854      2.00000
      6      -6.4588      2.00000
      7      -2.8431      2.00000
      8      -0.1112      2.00000
      9       1.5553      2.00000
     10       5.6954      0.00000
     11       8.4847      0.00000
     12      11.6243      0.00000
     13      11.7634      0.00000
     14      12.3249      0.00000
     15      14.2295      0.00000
     16      17.9828      0.00000

 soft charge-density along one line, spin component           1
         0         1         2         3         4         5         6         7         8         9
 total charge-density along one line

------------------------ aborting loop because EDIFF is reached ----------------------------------------

 total charge

# of ion     s       p       d       tot
  1        0.879   0.806   9.995  11.680
  2        1.209   1.596   0.031   2.836
tot        2.088   2.402  10.026  14.516

  FORCE on cell =-STRESS in cart. coord.  units (eV):
  Direction    XX          YY          ZZ          XY          YZ          ZX
  Alpha Z    60.29113    60.29113    60.29113
  Ewald    -421.83412  -421.83412  -421.83412    -0.00000    -0.00000    -0.00000
  Hartree   240.43878   240.43878   240.43878     0.00000    -0.00000    -0.00000
  E(xc)     -96.27505   -96.27505   -96.27505     0.00001    -0.00001    -0.00001
  Local     -60.87066   -60.87066   -60.87066     0.00011    -0.00011    -0.00011
  n-local    44.26568    48.46066    47.86877    -0.78350    -1.78997    -0.47973
  augment   120.07558   120.07558   120.07558    -0.00008     0.00008     0.00008
  Kinetic   107.97704   112.63079   113.57543    -1.51350    -4.14933    -1.25356
  Fock        0.00000     0.00000     0.00000     0.00000     0.00000     0.00000
  Total       0.08513     0.08513     0.08513     0.00000    -0.00000     0.00000
  in kB       3.01902     3.01902     3.01902     0.00000    -0.00000     0.00000

 VOLUME and BASIS-vectors are now :
  energy-cutoff  :      500.00
  volume of cell :       45.18
      direct lattice vectors                 reciprocal lattice vectors
     2.826800000  2.826800000  0.000000000     0.176878449  0.176878449  0.176878449
     2.826800000  0.000000000 -2.826800000     0.176878449 -0.176878449 -0.176878449
     0.000000000  2.826800000 -2.826800000    -0.176878449  0.176878449 -0.176878449

  length of vectors
     3.997698898  3.997698898  3.997698898     0.306362461  0.306362461  0.306362461

 FORCES acting on ions
    electron-ion (+dipol)            ewald-force                    non-local-force                 convergence-correction
   0.399E-06 0.416E-06 -.416E-06   -.329E-13 -.611E-14 0.232E-13   0.520E-16 0.416E-16 -.125E-15   0.815E-09 0.815E-09 -.815E-09
   -.304E-06 -.430E-06 0.430E-06   0.333E-13 0.317E-14 -.230E-13   0.278E-16 0.139E-16 -.625E-16   0.992E-10 0.992E-10 -.992E-10
   0.954E-07 -.142E-07 0.142E-07   0.399E-15 -.294E-14 0.210E-15   0.798E-16 0.555E-16 -.187E-15   0.914E-09 0.914E-09 -.914E-09

 POSITION                                       TOTAL-FORCE (eV/Angst)
      0.00000      0.00000      0.00000        -0.000000     -0.000000      0.000000
      1.41340      1.41340     -1.41340         0.000000      0.000000     -0.000000
    total drift:                                0.000000     -0.000000      0.000000

  FREE ENERGIE OF THE ION-ELECTRON SYSTEM (eV)
  free  energy   TOTEN  =        -9.06650053 eV

  energy  without entropy=       -9.06650053  energy(sigma->0) =       -9.06650053

 writing wavefunctions

 total charge

# of ion     s       p       d       tot
  1        0.879   0.806   9.995  11.680
  2        1.209   1.596   0.031   2.836
tot        2.088   2.402  10.026  14.516