 vasp.5.3.5 31Mar14 (build Apr 15 2015 10:45:18) complex

 executed on             LinuxIFC date 2016.02.22  16:44:58

 INCAR:
 POTCAR:    PAW_PBE Cu_pv 06Sep2000
 POTCAR:    PAW_PBE Zn 06Sep2000
 POTCAR:    PAW_PBE Sn_d 06Sep2000
 POTCAR:    PAW_PBE S 06Sep2000

 POTCAR:    PAW_PBE Cu_pv 06Sep2000
   VRHFIN =Cu: d10 p1

   TITEL  = PAW_PBE Cu_pv 06Sep2000
   POMASS =   63.546; ZVAL   =   17.000    mass and valenz
   ENMAX  =  368.648; ENMIN  =  276.486 eV

 POTCAR:    PAW_PBE Zn 06Sep2000
   VRHFIN =Zn: d10 p2

   TITEL  = PAW_PBE Zn 06Sep2000
   POMASS =   65.390; ZVAL   =   12.000    mass and valenz
   ENMAX  =  276.723; ENMIN  =  207.542 eV

 POTCAR:    PAW_PBE Sn_d 06Sep2000
   VRHFIN =Sn: s2p2

   TITEL  = PAW_PBE Sn_d 06Sep2000
   POMASS =  118.710; ZVAL   =   14.000    mass and valenz
   ENMAX  =  241.083; ENMIN  =  180.812 eV

 POTCAR:    PAW_PBE S 06Sep2000
   VRHFIN =S : s2p4

   TITEL  = PAW_PBE S 06Sep2000
   POMASS =   32.066; ZVAL   =    6.000    mass and valenz
   ENMAX  =  258.689; ENMIN  =  194.016 eV

  PAW_PBE Cu_pv 06Sep2000               :
  PAW_PBE Zn 06Sep2000                  :
  PAW_PBE Sn_d 06Sep2000                :
  PAW_PBE S 06Sep2000                   :

 POSCAR: Cu2ZnSnS4 (LaFond 2014, 293 K)
  positions in direct lattice
 exchange correlation table for  LEXCH =        8
   RHO(1)=    0.500       N(1)  =     2000
   RHO(2)=  100.500       N(2)  =     4000

 ion  position               nearest neighbor table
   1  0.000  0.000  0.000-   5 2.32   6 2.32   7 2.32   8 2.32
   2  0.750  0.250  0.500-   8 2.32   6 2.32   7 2.32   5 2.32
   3  0.500  0.500  0.000-   8 2.35   6 2.35   7 2.35   5 2.35
   4  0.250  0.750  0.500-   8 2.42   6 2.42   7 2.42   5 2.42
   5  0.118  0.134  0.244-   1 2.32   2 2.32   3 2.35   4 2.42
   6  0.639  0.623  0.244-   1 2.32   2 2.32   3 2.35   4 2.42
   7  0.866  0.361  0.756-   1 2.32   2 2.32   3 2.35   4 2.42
   8  0.377  0.882  0.756-   1 2.32   2 2.32   3 2.35   4 2.42

  LATTYP: Found a body centered tetragonal cell.
 ALAT       =     5.4353000000
 C/A-ratio  =     1.9955400000

  Lattice vectors:

 A1 = (   2.7176500000,  -2.7176500000,   5.4231792810)
 A2 = (  -2.7176500000,   2.7176500000,   5.4231792810)
 A3 = (  -2.7176500000,  -2.7176500000,  -5.4231792810)

Analysis of symmetry for initial positions (statically):
 Subroutine PRICEL returns:
 Original cell was already a primitive cell.

 Routine SETGRP: Setting up the symmetry group for a
 body centered tetragonal supercell.

 Subroutine GETGRP returns: Found  4 space group operations
 (whereof  4 operations were pure point group operations)
 out of a pool of 16 trial point group operations.

The static configuration has the point symmetry S_4 .

Analysis of symmetry for dynamics (positions and initial velocities):
 Subroutine PRICEL returns:
 Original cell was already a primitive cell.

 Routine SETGRP: Setting up the symmetry group for a
 body centered tetragonal supercell.

 Subroutine GETGRP returns: Found  4 space group operations
 (whereof  4 operations were pure point group operations)
 out of a pool of 16 trial point group operations.

The dynamic configuration has the point symmetry S_4 .

 KPOINTS: Automatic mesh

Automatic generation of k-mesh.
Space group operators:
 irot       det(A)        alpha          n_x          n_y          n_z        tau_x        tau_y        tau_z
    1     1.000000     0.000000     1.000000     0.000000     0.000000     0.000000     0.000000     0.000000
    2    -1.000000    90.000000     0.000000     0.000000    -1.000000     0.000000     0.000000     0.000000
    3     1.000000   180.000000     0.000000     0.000000     1.000000     0.000000     0.000000     0.000000
    4    -1.000000    90.000000     0.000000     0.000000     1.000000     0.000000     0.000000     0.000000

 Subroutine IBZKPT returns following result:

 Found     51 irreducible k-points:

 Following reciprocal coordinates:
            Coordinates               Weight
  0.000000  0.000000  0.000000      1.000000
  0.166667  0.000000  0.000000      4.000000
  0.333333  0.000000  0.000000      4.000000
  0.500000  0.000000  0.000000      4.000000
  0.166667  0.166667  0.000000      2.000000
  0.333333  0.166667  0.000000      4.000000
  0.500000  0.166667  0.000000      4.000000
 -0.333333  0.166667  0.000000      2.000000
 -0.166667  0.166667  0.000000      2.000000
  0.166667  0.333333  0.000000      4.000000
  0.333333  0.333333  0.000000      2.000000
  0.500000  0.333333 -0.000000      4.000000
 -0.333333  0.333333  0.000000      2.000000
 -0.166667  0.333333  0.000000      2.000000
  0.166667  0.500000  0.000000      4.000000
  0.333333  0.500000 -0.000000      4.000000
  0.500000  0.500000  0.000000      2.000000
  0.000000  0.000000  0.250000      2.000000
  0.166667  0.000000  0.250000      4.000000
  0.333333  0.000000  0.250000      4.000000
  0.500000  0.000000  0.250000      4.000000
 -0.333333  0.000000  0.250000      4.000000
 -0.166667  0.000000  0.250000      4.000000
  0.166667  0.166667  0.250000      2.000000
  0.333333  0.166667  0.250000      2.000000
  0.500000  0.166667  0.250000      4.000000
 -0.333333  0.166667  0.250000      2.000000
 -0.166667  0.166667  0.250000      4.000000
  0.166667  0.333333  0.250000      2.000000
  0.333333  0.333333  0.250000      2.000000
  0.500000  0.333333  0.250000      4.000000
 -0.333333  0.333333  0.250000      4.000000
 -0.166667  0.333333  0.250000      2.000000
  0.166667  0.500000  0.250000      4.000000
  0.333333  0.500000  0.250000      4.000000
  0.500000  0.500000  0.250000      2.000000
  0.166667 -0.333333  0.250000      2.000000
 -0.333333 -0.333333  0.250000      2.000000
 -0.166667 -0.333333  0.250000      2.000000
  0.333333 -0.166667  0.250000      2.000000
 -0.333333 -0.166667  0.250000      2.000000
 -0.166667 -0.166667  0.250000      2.000000
  0.000000  0.000000  0.500000      1.000000
  0.166667  0.000000  0.500000      4.000000
  0.333333  0.000000  0.500000      4.000000
  0.166667  0.166667  0.500000      2.000000
 -0.333333  0.166667  0.500000      2.000000
 -0.166667  0.166667  0.500000      2.000000
  0.333333  0.333333  0.500000      2.000000
 -0.333333  0.333333  0.500000      2.000000
 -0.166667  0.333333  0.500000      2.000000

 Following cartesian coordinates:
            Coordinates               Weight
  0.000000  0.000000  0.000000      1.000000
  0.166667  0.000000 -0.083520      4.000000
  0.333333  0.000000 -0.167039      4.000000
  0.500000  0.000000 -0.250559      4.000000
  0.166667  0.166667 -0.167039      2.000000
  0.333333  0.166667 -0.250559      4.000000
  0.500000  0.166667 -0.334078      4.000000
 -0.333333  0.166667  0.083520      2.000000
 -0.166667  0.166667  0.000000      2.000000
  0.166667  0.333333 -0.250559      4.000000
  0.333333  0.333333 -0.334078      2.000000
  0.500000  0.333333 -0.417598      4.000000
 -0.333333  0.333333  0.000000      2.000000
 -0.166667  0.333333 -0.083520      2.000000
  0.166667  0.500000 -0.334078      4.000000
  0.333333  0.500000 -0.417598      4.000000
  0.500000  0.500000 -0.501117      2.000000
  0.000000  0.000000  0.250559      2.000000
  0.166667  0.000000  0.167039      4.000000
  0.333333  0.000000  0.083520      4.000000
  0.500000  0.000000  0.000000      4.000000
 -0.333333  0.000000  0.417598      4.000000
 -0.166667  0.000000  0.334078      4.000000
  0.166667  0.166667  0.083520      2.000000
  0.333333  0.166667  0.000000      2.000000
  0.500000  0.166667 -0.083520      4.000000
 -0.333333  0.166667  0.334078      2.000000
 -0.166667  0.166667  0.250559      4.000000
  0.166667  0.333333  0.000000      2.000000
  0.333333  0.333333 -0.083520      2.000000
  0.500000  0.333333 -0.167039      4.000000
 -0.333333  0.333333  0.250559      4.000000
 -0.166667  0.333333  0.167039      2.000000
  0.166667  0.500000 -0.083520      4.000000
  0.333333  0.500000 -0.167039      4.000000
  0.500000  0.500000 -0.250559      2.000000
  0.166667 -0.333333  0.334078      2.000000
 -0.333333 -0.333333  0.584637      2.000000
 -0.166667 -0.333333  0.501117      2.000000
  0.333333 -0.166667  0.167039      2.000000
 -0.333333 -0.166667  0.501117      2.000000
 -0.166667 -0.166667  0.417598      2.000000
  0.000000  0.000000  0.501117      1.000000
  0.166667  0.000000  0.417598      4.000000
  0.333333  0.000000  0.334078      4.000000
  0.166667  0.166667  0.334078      2.000000
 -0.333333  0.166667  0.584637      2.000000
 -0.166667  0.166667  0.501117      2.000000
  0.333333  0.333333  0.167039      2.000000
 -0.333333  0.333333  0.501117      2.000000
 -0.166667  0.333333  0.417598      2.000000

 Subroutine IBZKPT_HF returns following result:

 Found    336 k-points in 1st BZ
 the following    336 k-points will be used (e.g. in the exchange kernel)
 Following reciprocal coordinates:   # in IRBZ
  0.000000  0.000000  0.000000       1 t-inv F
  0.166667  0.000000  0.000000       2 t-inv F
  0.333333  0.000000  0.000000       3 t-inv F
  0.500000  0.000000  0.000000       4 t-inv F
  0.166667  0.166667  0.000000       5 t-inv F
  0.333333  0.166667  0.000000       6 t-inv F
  0.500000  0.166667  0.000000       7 t-inv F
 -0.333333  0.166667  0.000000       8 t-inv F
 -0.166667  0.166667  0.000000       9 t-inv F
  0.166667  0.333333  0.000000      10 t-inv F
  0.333333  0.333333  0.000000      11 t-inv F
  0.500000  0.333333 -0.000000      12 t-inv F
 -0.333333  0.333333  0.000000      13 t-inv F
 -0.166667  0.333333  0.000000      14 t-inv F
  0.166667  0.500000  0.000000      15 t-inv F
  0.333333  0.500000 -0.000000      16 t-inv F
  0.500000  0.500000  0.000000      17 t-inv F
  0.000000  0.000000  0.250000      18 t-inv F
  0.166667  0.000000  0.250000      19 t-inv F
  0.333333  0.000000  0.250000      20 t-inv F
  0.500000  0.000000  0.250000      21 t-inv F
 -0.333333  0.000000  0.250000      22 t-inv F
 -0.166667  0.000000  0.250000      23 t-inv F
  0.166667  0.166667  0.250000      24 t-inv F
  0.333333  0.166667  0.250000      25 t-inv F
  0.500000  0.166667  0.250000      26 t-inv F
 -0.333333  0.166667  0.250000      27 t-inv F
 -0.166667  0.166667  0.250000      28 t-inv F
  0.166667  0.333333  0.250000      29 t-inv F
  0.333333  0.333333  0.250000      30 t-inv F
  0.500000  0.333333  0.250000      31 t-inv F
 -0.333333  0.333333  0.250000      32 t-inv F
 -0.166667  0.333333  0.250000      33 t-inv F
  0.166667  0.500000  0.250000      34 t-inv F
  0.333333  0.500000  0.250000      35 t-inv F
  0.500000  0.500000  0.250000      36 t-inv F
  0.166667 -0.333333  0.250000      37 t-inv F
 -0.333333 -0.333333  0.250000      38 t-inv F
 -0.166667 -0.333333  0.250000      39 t-inv F
  0.333333 -0.166667  0.250000      40 t-inv F
 -0.333333 -0.166667  0.250000      41 t-inv F
 -0.166667 -0.166667  0.250000      42 t-inv F
  0.000000  0.000000  0.500000      43 t-inv F
  0.166667  0.000000  0.500000      44 t-inv F
  0.333333  0.000000  0.500000      45 t-inv F
  0.166667  0.166667  0.500000      46 t-inv F
 -0.333333  0.166667  0.500000      47 t-inv F
 -0.166667  0.166667  0.500000      48 t-inv F
  0.333333  0.333333  0.500000      49 t-inv F
 -0.333333  0.333333  0.500000      50 t-inv F
[...]
   0.25000000  0.75000000  0.50000000
   0.11777234  0.13390109  0.24359300
   0.63863466  0.62250591  0.24359300
   0.86609891  0.36136534  0.75640700
   0.37749409  0.88222766  0.75640700

 position of ions in cartesian coordinates  (Angst):
   0.00000000  0.00000000  0.00000000
   5.43530000  2.71765000  2.71158964
   2.71765000  2.71765000  0.00000000
   2.71765000  5.43530000  2.71158964
   1.30212853  1.38979311  1.32104849
   4.13317147  4.04550689  1.32104849
   6.76315689  4.01977853  4.10213079
   4.10744311  6.85082147  4.10213079

 k-point  1 :   0.0000 0.0000 0.0000  plane waves:    4055
 k-point  2 :   0.1667 0.0000 0.0000  plane waves:    4054
 k-point  3 :   0.3333 0.0000 0.0000  plane waves:    4078
 k-point  4 :   0.5000 0.0000 0.0000  plane waves:    4072
 k-point  5 :   0.1667 0.1667 0.0000  plane waves:    4054
 k-point  6 :   0.3333 0.1667 0.0000  plane waves:    4071
 k-point  7 :   0.5000 0.1667 0.0000  plane waves:    4069
 k-point  8 :  -0.3333 0.1667 0.0000  plane waves:    4066
 k-point  9 :  -0.1667 0.1667 0.0000  plane waves:    4058
 k-point 10 :   0.1667 0.3333 0.0000  plane waves:    4071
 k-point 11 :   0.3333 0.3333 0.0000  plane waves:    4064
 k-point 12 :   0.5000 0.3333-0.0000  plane waves:    4074
 k-point 13 :  -0.3333 0.3333 0.0000  plane waves:    4068
 k-point 14 :  -0.1667 0.3333 0.0000  plane waves:    4066
 k-point 15 :   0.1667 0.5000 0.0000  plane waves:    4069
 k-point 16 :   0.3333 0.5000-0.0000  plane waves:    4074
 k-point 17 :   0.5000 0.5000 0.0000  plane waves:    4054
 k-point 18 :   0.0000 0.0000 0.2500  plane waves:    4056
 k-point 19 :   0.1667 0.0000 0.2500  plane waves:    4052
 k-point 20 :   0.3333 0.0000 0.2500  plane waves:    4063
 k-point 21 :   0.5000 0.0000 0.2500  plane waves:    4072
 k-point 22 :  -0.3333 0.0000 0.2500  plane waves:    4078
 k-point 23 :  -0.1667 0.0000 0.2500  plane waves:    4068
 k-point 24 :   0.1667 0.1667 0.2500  plane waves:    4060
 k-point 25 :   0.3333 0.1667 0.2500  plane waves:    4064
 k-point 26 :   0.5000 0.1667 0.2500  plane waves:    4070
 k-point 27 :  -0.3333 0.1667 0.2500  plane waves:    4071
 k-point 28 :  -0.1667 0.1667 0.2500  plane waves:    4057
 k-point 29 :   0.1667 0.3333 0.2500  plane waves:    4064
 k-point 30 :   0.3333 0.3333 0.2500  plane waves:    4061
 k-point 31 :   0.5000 0.3333 0.2500  plane waves:    4074
 k-point 32 :  -0.3333 0.3333 0.2500  plane waves:    4055
 k-point 33 :  -0.1667 0.3333 0.2500  plane waves:    4063
 k-point 34 :   0.1667 0.5000 0.2500  plane waves:    4070
 k-point 35 :   0.3333 0.5000 0.2500  plane waves:    4074
 k-point 36 :   0.5000 0.5000 0.2500  plane waves:    4080
 k-point 37 :   0.1667-0.3333 0.2500  plane waves:    4071
 k-point 38 :  -0.3333-0.3333 0.2500  plane waves:    4085
 k-point 39 :  -0.1667-0.3333 0.2500  plane waves:    4082
 k-point 40 :   0.3333-0.1667 0.2500  plane waves:    4063
 k-point 41 :  -0.3333-0.1667 0.2500  plane waves:    4082
 k-point 42 :  -0.1667-0.1667 0.2500  plane waves:    4064
 k-point 43 :   0.0000 0.0000 0.5000  plane waves:    4040
 k-point 44 :   0.1667 0.0000 0.5000  plane waves:    4060
 k-point 45 :   0.3333 0.0000 0.5000  plane waves:    4074
 k-point 46 :   0.1667 0.1667 0.5000  plane waves:    4069
 k-point 47 :  -0.3333 0.1667 0.5000  plane waves:    4077
 k-point 48 :  -0.1667 0.1667 0.5000  plane waves:    4058
 k-point 49 :   0.3333 0.3333 0.5000  plane waves:    4050
 k-point 50 :  -0.3333 0.3333 0.5000  plane waves:    4094
 k-point 51 :  -0.1667 0.3333 0.5000  plane waves:    4077

 maximum and minimum number of plane-waves per node :      1047      986

 maximum number of plane-waves:      4094
 maximum index in each direction:
   IXMAX=   10   IYMAX=   10   IZMAX=   12
   IXMIN=  -10   IYMIN=  -10   IZMIN=  -12

 WARNING: aliasing errors must be expected set NGX to  42 to avoid them
 WARNING: aliasing errors must be expected set NGY to  42 to avoid them
 WARNING: aliasing errors must be expected set NGZ to  50 to avoid them
 aliasing errors are usually negligible using standard VASP settings
 and one can safely disregard these warnings

 parallel 3D FFT for wavefunctions:
    minimum data exchange during FFTs selected (reduces bandwidth)
 parallel 3D FFT for charge:
    minimum data exchange during FFTs selected (reduces bandwidth)

 FFT grid for exact exchange (Hartree Fock)
  NGX = 24; NGY = 24; NGZ = 28

 Radii for the augmentation spheres in the non-local exchange
 for species   1 augmentation radius   1.120 (default was   0.830)
       energy cutoff for augmentation   2000.0
 for species   2 augmentation radius   1.285 (default was   0.952)
       energy cutoff for augmentation   2000.0
 for species   3 augmentation radius   1.471 (default was   1.089)
       energy cutoff for augmentation   2000.0
 for species   4 augmentation radius   1.309 (default was   0.970)
       energy cutoff for augmentation   2000.0

 real space projection operators:
  max/ min on nodes  :        237.07        230.05

 Broyden mixing: mesh for mixing (old mesh)
   NGX = 19   NGY = 19   NGZ = 25
  (NGX  = 80   NGY  = 80   NGZ  = 96)
  gives a total of   9025 points

 initial charge density was supplied:
 charge density of overlapping atoms calculated
 number of electron      84.0000000 magnetization
 charge density for first step will be calculated from the start-wavefunctions

 Maximum index for augmentation-charges         1303 (set IRDMAX)

 First call to EWALD:  gamma=   0.326
 Maximum number of real-space cells 3x 3x 3
 Maximum number of reciprocal cells 3x 3x 3

 FEWALD executed in parallel

----------------------------------------- Iteration    1(   1)  ---------------------------------------

 eigenvalue-minimisations  :  7436
 total energy-change (2. order) : 0.4888238E+04  (-0.1581057E+05)
 number of electron      84.0000000 magnetization
 augmentation part       84.0000000 magnetization

 Free energy of the ion-electron system (eV)
  alpha Z        PSCENC =       275.46753454
  Ewald energy   TEWEN  =     -7155.92568703
  -Hartree energ DENC   =     -5111.05795514
  -exchange      EXHF   =         0.00000000
  -V(xc)+E(xc)   XCENC  =       287.92794054
  PAW double counting   =     10942.69525278   -11381.18114668
  entropy T*S    EENTRO =        -0.00003125
  eigenvalues    EBANDS =      4055.00042522
  atomic energy  EATOM  =     12975.31123126
  free energy    TOTEN  =      4888.23756425 eV

  energy without entropy =     4888.23759550  energy(sigma->0) =     4888.23757987

[...]

 eigenvalue-minimisations  :  5964
 total energy-change (2. order) :-0.3562271E+04  (-0.3483906E+04)
 number of electron      84.0000000 magnetization
 augmentation part       84.0000000 magnetization

[...]

----------------------------------------- Iteration    1(  25)  ---------------------------------------

 eigenvalue-minimisations  :     0
 total energy-change (2. order) :-0.3966925E-06  (-0.4211037E-06)
 number of electron      83.9999897 magnetization
 augmentation part       34.2872880 magnetization

 Free energy of the ion-electron system (eV)
  alpha Z        PSCENC =       275.46753454
  Ewald energy   TEWEN  =     -7155.92568703
  -Hartree energ DENC   =     -5091.49849784
  -exchange      EXHF   =       242.05892122
  -V(xc)+E(xc)   XCENC  =       288.38423705
  PAW double counting   =     13956.67956962   -14404.45400170
  entropy T*S    EENTRO =        -0.00000000
  eigenvalues    EBANDS =     -1124.60962628
  atomic energy  EATOM  =     12975.31123126
  free energy    TOTEN  =       -38.58631915 eV

  energy without entropy =      -38.58631915  energy(sigma->0) =      -38.58631915

  average scaling for gradient   0.7300

 the core state eigenenergies are
   1-  1s    -70.4241  2s    -70.6566  2p    -70.6566  3s    -70.6566
   2-  1s    -70.4265  2s    -70.6553  2p    -70.6553  3s    -70.6553
   3-  1s    -27.1786  2s    -27.3055  2p    -27.3055  3s    -27.3055  3p    -27.3055

   4-  1s    -97.2262  2s    -97.2876  2p    -97.2876  3s    -97.2876  3p    -97.2876
       3d    -97.2876  4s    -97.2876  4p    -97.2876
   5-  1s    -83.6931  2s    -83.8756  2p    -83.8756
   6-  1s    -83.6931  2s    -83.8756  2p    -83.8756
   7-  1s    -83.6931  2s    -83.8756  2p    -83.8756
   8-  1s    -83.6931  2s    -83.8756  2p    -83.8756

 E-fermi :   4.1957     XC(G=0):  -8.1358     alpha+bet : -9.9404

 k-point     1 :       0.0000    0.0000    0.0000
  band No.  band energies     occupation
      1     -68.5138      2.00000
      2     -68.4805      2.00000
      3     -68.4805      2.00000
      4     -68.4613      2.00000
      5     -68.4580      2.00000
      6     -68.4580      2.00000
      7     -20.1599      2.00000
      8     -20.1560      2.00000
      9     -20.1560      2.00000
     10     -20.0623      2.00000
     11     -20.0569      2.00000
     12     -11.7212      2.00000
     13     -10.0768      2.00000
     14     -10.0664      2.00000
     15     -10.0664      2.00000
     16      -4.7132      2.00000
     17      -4.6432      2.00000
     18      -4.5977      2.00000
     19      -4.5977      2.00000
     20      -4.5906      2.00000
     21      -4.2422      2.00000
     22      -1.8603      2.00000
     23      -1.2300      2.00000
     24      -1.1806      2.00000
     25      -0.7450      2.00000
     26      -0.6156      2.00000
     27      -0.6156      2.00000
     28      -0.0030      2.00000
     29      -0.0030      2.00000
     30       0.3450      2.00000
     31       0.3804      2.00000
     32       0.3804      2.00000
     33       1.4095      2.00000
     34       1.4744      2.00000
     35       1.6272      2.00000
     36       1.9549      2.00000
     37       2.0156      2.00000
     38       2.0156      2.00000
     39       2.1733      2.00000
     40       3.9140      2.00000
     41       3.9140      2.00000
     42       3.9728      2.00000
     43       5.3730      0.00000
     44       6.9972      0.00000
     45       8.0438      0.00000
     46       8.9299      0.00000
     47       8.9299      0.00000
     48      10.1710      0.00000
     49      10.4393      0.00000
     50      10.4734      0.00000
     51      10.5952      0.00000
     52      12.0856      0.00000

[...]

 k-point    51 :      -0.1667    0.3333    0.5000
  band No.  band energies     occupation
      1     -68.5138      2.00000
      2     -68.4807      2.00000
      3     -68.4806      2.00000
      4     -68.4614      2.00000
      5     -68.4581      2.00000
      6     -68.4581      2.00000
      7     -20.1605      2.00000
      8     -20.1563      2.00000
      9     -20.1560      2.00000
     10     -20.0618      2.00000
     11     -20.0567      2.00000
     12     -11.0531      2.00000
     13     -10.5453      2.00000
     14     -10.4106      2.00000
     15     -10.1563      2.00000
     16      -4.9436      2.00000
     17      -4.6755      2.00000
     18      -4.6415      2.00000
     19      -4.5685      2.00000
     20      -4.5404      2.00000
     21      -3.7528      2.00000
     22      -2.0827      2.00000
     23      -1.5213      2.00000
     24      -1.2117      2.00000
     25      -0.8428      2.00000
     26      -0.3448      2.00000
     27      -0.1365      2.00000
     28      -0.0669      2.00000
     29      -0.0052      2.00000
     30       0.3038      2.00000
     31       0.5187      2.00000
     32       0.6248      2.00000
     33       1.5723      2.00000
     34       1.5996      2.00000
     35       1.6797      2.00000
     36       1.8605      2.00000
     37       2.1613      2.00000
     38       2.3092      2.00000
     39       2.6353      2.00000
     40       2.8543      2.00000
     41       2.9809      2.00000
     42       3.3866      2.00000
     43       6.5335      0.00000
     44       7.8241      0.00000
     45       8.1970      0.00000
     46       8.8191      0.00000
     47       8.9658      0.00000
     48      10.0349      0.00000
     49      10.2023      0.00000
     50      10.8849      0.00000
     51      11.4018      0.00000
     52      11.4889      0.00000

 soft charge-density along one line, spin component           1
         0         1         2         3         4         5         6         7         8         9
 total charge-density along one line

------------------------ aborting loop because EDIFF is reached ----------------------------------------

 total charge

# of ion     s       p       d       tot
  1        0.207   6.163   9.067  15.437
  2        0.206   6.161   9.068  15.435
  3        0.490   0.461   9.836  10.787
  4        1.084   1.141  10.121  12.346
  5        1.319   2.413   0.000   3.732
  6        1.319   2.413   0.000   3.732
  7        1.319   2.413   0.000   3.732
  8        1.318   2.412   0.000   3.731
tot        7.263  23.577  38.091  68.932

  FORCE on cell =-STRESS in cart. coord.  units (eV):
  Direction    XX          YY          ZZ          XY          YZ          ZX
  Alpha Z   275.46753   275.46753   275.46753
  Ewald   -2394.86127 -2394.86127 -2366.21278     0.00000     0.00000     0.00000
  Hartree  1686.79309  1686.79309  1717.91714     0.00000     0.00017     0.00015
  E(xc)    -375.94742  -375.94741  -375.94938    -0.00004     0.00001     0.00001
  Local    -634.07766  -634.07766  -694.15749     0.00036     0.00053     0.00056
  n-local   660.58317   660.71273   660.90209     0.01754     0.00150     0.13654
  augment   455.52078   455.52076   455.12431    -0.00029    -0.00253    -0.00252
  Kinetic   910.01131   911.94027   911.14540    -0.04167    -0.15919    -0.31442
  Fock     -584.70604  -584.76754  -584.34884     0.00520    -0.01071    -0.03353
  Total      -0.21801    -0.21801    -0.11201     0.00000    -0.00000     0.00000
  in kB      -2.18012    -2.18012    -1.12015     0.00000    -0.00000     0.00000

 VOLUME and BASIS-vectors are now :
  energy-cutoff  :      500.00
  volume of cell :      160.21
      direct lattice vectors                 reciprocal lattice vectors
     5.435300000  0.000000000  0.000000000     0.183982485  0.000000000 -0.092196841
     0.000000000  5.435300000  0.000000000     0.000000000  0.183982485 -0.092196841
     2.717650000  2.717650000  5.423179281     0.000000000  0.000000000  0.184393683

  length of vectors
     5.435300000  5.435300000  6.646962958     0.205790700  0.205790700  0.184393683

 FORCES acting on ions:
    Electron-Ion                     Ewald-Force                    Non-Local-Force
   -.404E-05 -.854E-06 -.480E-06   0.790E-11 -.246E-11 -.851E-11   -.434E-18 0.108E-17 0.000E+00
   -.641E-07 0.263E-05 0.501E-06   -.763E-11 -.242E-11 0.874E-11   -.217E-18 0.000E+00 0.000E+00
   0.290E-05 -.200E-05 0.521E-06   0.543E-11 -.263E-11 0.605E-11   0.000E+00 -.217E-18 0.000E+00
   0.249E-05 -.194E-05 -.437E-06   -.550E-11 -.257E-11 -.620E-11   -.130E-17 -.477E-17 0.000E+00
   -.636E+02 -.715E+01 0.576E+01   0.613E+02 0.840E+01 -.704E+01   0.221E+01 -.120E+01 0.122E+01
   0.636E+02 0.715E+01 0.576E+01   -.613E+02 -.840E+01 -.704E+01   -.221E+01 0.120E+01 0.122E+01
   0.715E+01 -.636E+02 -.576E+01   -.840E+01 0.613E+02 0.704E+01   0.120E+01 0.221E+01 -.122E+01
   -.715E+01 0.636E+02 -.576E+01   0.840E+01 -.613E+02 0.704E+01   -.120E+01 -.221E+01 -.122E+01
   -.978E-05 -.516E-05 0.270E-04   0.178E-14 -.711E-14 -.133E-13   0.444E-15 0.444E-15 0.000E+00

 POSITION                                       TOTAL-FORCE (eV/Angst)
      0.00000      0.00000      0.00000         0.000000     -0.000000     -0.000000
      5.43530      2.71765      2.71159         0.000000     -0.000000     -0.000000
      2.71765      2.71765      0.00000         0.000000     -0.000000     -0.000000
      2.71765      5.43530      2.71159         0.000000     -0.000000     -0.000000
      1.30213      1.38979      1.32105         0.101264     -0.064292      0.054251
      4.13317      4.04551      1.32105        -0.101264      0.064292      0.054251
      6.76316      4.01978      4.10213         0.064292      0.101264     -0.054251
      4.10744      6.85082      4.10213        -0.064292     -0.101264     -0.054251
    total drift:                               -0.000010     -0.000005      0.000027

  FREE ENERGIE OF THE ION-ELECTRON SYSTEM (eV)
  free  energy   TOTEN  =       -38.58631915 eV

  energy  without entropy=      -38.58631915  energy(sigma->0) =      -38.58631915

 writing wavefunctions

 total charge

# of ion     s       p       d       tot
  1        0.207   6.163   9.067  15.437
  2        0.206   6.161   9.068  15.435
  3        0.490   0.461   9.836  10.787
  4        1.084   1.141  10.121  12.346
  5        1.319   2.413   0.000   3.732
  6        1.319   2.413   0.000   3.732
  7        1.319   2.413   0.000   3.732
  8        1.318   2.412   0.000   3.731
tot        7.263  23.577  38.091  68.932