 vasp.5.4.1 24Jun15 (build Nov 25 2015 16:01:35) complex

 executed on         CrayXC-Intel date 2016.09.07  14:56:20

 INCAR:
 POTCAR:    PAW_PBE Si 05Jan2001

 POTCAR:    PAW_PBE Si 05Jan2001
   VRHFIN =Si: s2p2

   TITEL  = PAW_PBE Si 05Jan2001
   POMASS =   28.085; ZVAL   =    4.000    mass and valenz
   ENMAX  =  245.345; ENMIN  =  184.009 eV

  PAW_PBE Si 05Jan2001                  :

 POSCAR: Si (Madelung Handbook, 295.7K)
  positions in direct lattice
  velocities in cartesian coordinates
 exchange correlation table for  LEXCH =        8
   RHO(1)=    0.500       N(1)  =     2000
   RHO(2)=  100.500       N(2)  =     4000

 ion  position               nearest neighbor table
   1  0.000  0.000  0.000-   2 2.35   2 2.35   2 2.35   2 2.35
   2  0.250  0.250  0.250-   1 2.35   1 2.35   1 2.35   1 2.35

  LATTYP: Found a face centered cubic cell.
 ALAT       =     5.4310000000

  Lattice vectors:

 A1 = (   2.7155000000,   2.7155000000,   0.0000000000)
 A2 = (   2.7155000000,   0.0000000000,  -2.7155000000)
 A3 = (   0.0000000000,   2.7155000000,  -2.7155000000)

Analysis of symmetry for initial positions (statically):
 Subroutine PRICEL returns:
 Original cell was already a primitive cell.

 Routine SETGRP: Setting up the symmetry group for a
 face centered cubic supercell.

 Subroutine GETGRP returns: Found 48 space group operations
 (whereof 24 operations were pure point group operations)
 out of a pool of 48 trial point group operations.

The static configuration has the point symmetry T_d .
 The point group associated with its full space group is O_h .

Analysis of symmetry for dynamics (positions and initial velocities):
 Subroutine PRICEL returns:
 Original cell was already a primitive cell.

 Routine SETGRP: Setting up the symmetry group for a
 face centered cubic supercell.

 Subroutine GETGRP returns: Found 48 space group operations
 (whereof 24 operations were pure point group operations)
 out of a pool of 48 trial point group operations.

The dynamic configuration has the point symmetry T_d .
 The point group associated with its full space group is O_h .

 Subroutine INISYM returns: Found 48 space group operations
 (whereof 24 operations are pure point group operations),
 and found     1 'primitive' translations

 KPOINTS: Automatically generated mesh: SCF=15, 0.
  k-points in reciprocal lattice
Space group operators:
 irot       det(A)        alpha          n_x          n_y          n_z        tau_x        tau_y        tau_z
    1     1.000000     0.000001     1.000000     0.000000     0.000000     0.000000     0.000000     0.000000
    2     1.000000   120.000000    -0.577350    -0.577350     0.577350     0.000000     0.000000     0.000000
    3     1.000000   120.000000     0.577350     0.577350    -0.577350     0.000000     0.000000     0.000000
    4    -1.000000    90.000000    -1.000000     0.000000     0.000000     0.000000     0.000000     0.000000
    5    -1.000000   180.000000     0.707107     0.707107     0.000000     0.000000     0.000000     0.000000
    6    -1.000000    90.000000     0.000000     1.000000     0.000000     0.000000     0.000000     0.000000
    7     1.000000   180.000000     1.000000     0.000000     0.000000     0.000000     0.000000     0.000000
    8     1.000000   120.000000     0.577350     0.577350     0.577350     0.000000     0.000000     0.000000
    9     1.000000   120.000000    -0.577350     0.577350     0.577350     0.000000     0.000000     0.000000
   10    -1.000000    90.000000     1.000000     0.000000     0.000000     0.000000     0.000000     0.000000
   11    -1.000000    90.000000     0.000000     0.000000     1.000000     0.000000     0.000000     0.000000
   12    -1.000000   180.000000     0.707107     0.000000    -0.707107     0.000000     0.000000     0.000000
   13     1.000000   120.000000     0.577350    -0.577350    -0.577350     0.000000     0.000000     0.000000
   14     1.000000   120.000000     0.577350    -0.577350     0.577350     0.000000     0.000000     0.000000
   15     1.000000   180.000000     0.000000     0.000000     1.000000     0.000000     0.000000     0.000000
   16    -1.000000    90.000000     0.000000    -1.000000     0.000000     0.000000     0.000000     0.000000
   17    -1.000000   180.000000     0.000000    -0.707107     0.707107     0.000000     0.000000     0.000000
   18    -1.000000    90.000000     0.000000     0.000000    -1.000000     0.000000     0.000000     0.000000
   19     1.000000   120.000000    -0.577350    -0.577350    -0.577350     0.000000     0.000000     0.000000
   20     1.000000   180.000000     0.000000     1.000000     0.000000     0.000000     0.000000     0.000000
   21     1.000000   120.000000    -0.577350     0.577350    -0.577350     0.000000     0.000000     0.000000
   22    -1.000000   180.000000     0.707107    -0.707107     0.000000     0.000000     0.000000     0.000000
   23    -1.000000   180.000000     0.000000     0.707107     0.707107     0.000000     0.000000     0.000000
   24    -1.000000   180.000000     0.707107     0.000000     0.707107     0.000000     0.000000     0.000000
   25    -1.000000     0.000001     1.000000     0.000000     0.000000     0.250000     0.250000     0.250000
   26    -1.000000   120.000000    -0.577350    -0.577350     0.577350     0.250000     0.250000     0.250000
   27    -1.000000   120.000000     0.577350     0.577350    -0.577350     0.250000     0.250000     0.250000
   28     1.000000    90.000000    -1.000000     0.000000     0.000000     0.250000     0.250000     0.250000
   29     1.000000   180.000000     0.707107     0.707107     0.000000     0.250000     0.250000     0.250000
   30     1.000000    90.000000     0.000000     1.000000     0.000000     0.250000     0.250000     0.250000
   31    -1.000000   180.000000     1.000000     0.000000     0.000000     0.250000     0.250000     0.250000
   32    -1.000000   120.000000     0.577350     0.577350     0.577350     0.250000     0.250000     0.250000
   33    -1.000000   120.000000    -0.577350     0.577350     0.577350     0.250000     0.250000     0.250000
   34     1.000000    90.000000     1.000000     0.000000     0.000000     0.250000     0.250000     0.250000
   35     1.000000    90.000000     0.000000     0.000000     1.000000     0.250000     0.250000     0.250000
   36     1.000000   180.000000     0.707107     0.000000    -0.707107     0.250000     0.250000     0.250000
   37    -1.000000   120.000000     0.577350    -0.577350    -0.577350     0.250000     0.250000     0.250000
   38    -1.000000   120.000000     0.577350    -0.577350     0.577350     0.250000     0.250000     0.250000
   39    -1.000000   180.000000     0.000000     0.000000     1.000000     0.250000     0.250000     0.250000
   40     1.000000    90.000000     0.000000    -1.000000     0.000000     0.250000     0.250000     0.250000
   41     1.000000   180.000000     0.000000    -0.707107     0.707107     0.250000     0.250000     0.250000
   42     1.000000    90.000000     0.000000     0.000000    -1.000000     0.250000     0.250000     0.250000
   43    -1.000000   120.000000    -0.577350    -0.577350    -0.577350     0.250000     0.250000     0.250000
   44    -1.000000   180.000000     0.000000     1.000000     0.000000     0.250000     0.250000     0.250000
   45    -1.000000   120.000000    -0.577350     0.577350    -0.577350     0.250000     0.250000     0.250000
   46     1.000000   180.000000     0.707107    -0.707107     0.000000     0.250000     0.250000     0.250000
   47     1.000000   180.000000     0.000000     0.707107     0.707107     0.250000     0.250000     0.250000
   48     1.000000   180.000000     0.707107     0.000000     0.707107     0.250000     0.250000     0.250000

 Subroutine IBZKPT_HF returns following result:

 Found    488 k-points in 1st BZ
 the following    488 k-points will be used (e.g. in the exchange kernel)
 Following reciprocal coordinates:   # in IRBZ
  0.000000  0.000000  0.000000    0.00490196   1 t-inv F
  0.166667  0.000000  0.000000    0.00490196   2 t-inv F
  0.333333  0.000000  0.000000    0.00490196   3 t-inv F
  0.500000  0.000000  0.000000    0.00490196   4 t-inv F
  0.166667  0.166667  0.000000    0.00490196   5 t-inv F
  0.333333  0.166667  0.000000    0.00490196   6 t-inv F
  0.500000  0.166667  0.000000    0.00490196   7 t-inv F
 -0.333333  0.166667  0.000000    0.00490196   8 t-inv F
 -0.166667  0.166667  0.000000    0.00490196   9 t-inv F
  0.333333  0.333333  0.000000    0.00490196  10 t-inv F
  0.500000  0.333333  0.000000    0.00490196  11 t-inv F
 -0.333333  0.333333  0.000000    0.00490196  12 t-inv F
  0.500000  0.500000  0.000000    0.00490196  13 t-inv F
  0.500000  0.333333  0.166667    0.00490196  14 t-inv F
 -0.333333  0.333333  0.166667    0.00490196  15 t-inv F
  0.000000  0.000000  0.000000    0.00000000  16 t-inv F
  0.001761  0.000000  0.001761    0.00000000  17 t-inv F
  0.003521  0.000000  0.003521    0.00000000  18 t-inv F
  0.005282  0.000000  0.005282    0.00000000  19 t-inv F
  0.007042  0.000000  0.007042    0.00000000  20 t-inv F
  0.008803  0.000000  0.008803    0.00000000  21 t-inv F
  0.010563  0.000000  0.010563    0.00000000  22 t-inv F
  0.012324  0.000000  0.012324    0.00000000  23 t-inv F
  0.014085  0.000000  0.014085    0.00000000  24 t-inv F
  0.015845  0.000000  0.015845    0.00000000  25 t-inv F
  0.017606  0.000000  0.017606    0.00000000  26 t-inv F
  0.019366  0.000000  0.019366    0.00000000  27 t-inv F
  0.021127  0.000000  0.021127    0.00000000  28 t-inv F
  0.022887  0.000000  0.022887    0.00000000  29 t-inv F
  0.024648  0.000000  0.024648    0.00000000  30 t-inv F
  0.026408  0.000000  0.026408    0.00000000  31 t-inv F
  0.028169  0.000000  0.028169    0.00000000  32 t-inv F
  0.029930  0.000000  0.029930    0.00000000  33 t-inv F
  0.031690  0.000000  0.031690    0.00000000  34 t-inv F
  0.033451  0.000000  0.033451    0.00000000  35 t-inv F
  0.035211  0.000000  0.035211    0.00000000  36 t-inv F
  0.036972  0.000000  0.036972    0.00000000  37 t-inv F
  0.038732  0.000000  0.038732    0.00000000  38 t-inv F
  0.040493  0.000000  0.040493    0.00000000  39 t-inv F
  0.042254  0.000000  0.042254    0.00000000  40 t-inv F
  0.044014  0.000000  0.044014    0.00000000  41 t-inv F
  0.045775  0.000000  0.045775    0.00000000  42 t-inv F
  0.047535  0.000000  0.047535    0.00000000  43 t-inv F
  0.049296  0.000000  0.049296    0.00000000  44 t-inv F
  0.051056  0.000000  0.051056    0.00000000  45 t-inv F
  0.052817  0.000000  0.052817    0.00000000  46 t-inv F
  0.054577  0.000000  0.054577    0.00000000  47 t-inv F
  0.056338  0.000000  0.056338    0.00000000  48 t-inv F
  0.058099  0.000000  0.058099    0.00000000  49 t-inv F
  0.059859  0.000000  0.059859    0.00000000  50 t-inv F
  0.061620  0.000000  0.061620    0.00000000  51 t-inv F
  0.063380  0.000000  0.063380    0.00000000  52 t-inv F
  0.065141  0.000000  0.065141    0.00000000  53 t-inv F
  0.066901  0.000000  0.066901    0.00000000  54 t-inv F
  0.068662  0.000000  0.068662    0.00000000  55 t-inv F
  0.070423  0.000000  0.070423    0.00000000  56 t-inv F
[...]
 k-point  5 :   0.1667 0.1667 0.0000  plane waves:     998
 k-point  6 :   0.3333 0.1667 0.0000  plane waves:    1011
 k-point  7 :   0.5000 0.1667 0.0000  plane waves:    1017
 k-point  8 :  -0.3333 0.1667 0.0000  plane waves:    1019
 k-point  9 :  -0.1667 0.1667 0.0000  plane waves:    1013
 k-point 10 :   0.3333 0.3333 0.0000  plane waves:    1018
 k-point 11 :   0.5000 0.3333 0.0000  plane waves:    1012
 k-point 12 :  -0.3333 0.3333 0.0000  plane waves:    1015
 k-point 13 :   0.5000 0.5000 0.0000  plane waves:    1034
 k-point 14 :   0.5000 0.3333 0.1667  plane waves:    1032
 k-point 15 :  -0.3333 0.3333 0.1667  plane waves:    1020
 k-point 16 :   0.0000 0.0000 0.0000  plane waves:     965
 k-point 17 :   0.0018 0.0000 0.0018  plane waves:     965
 k-point 18 :   0.0035 0.0000 0.0035  plane waves:     965
 k-point 19 :   0.0053 0.0000 0.0053  plane waves:     965
 k-point 20 :   0.0070 0.0000 0.0070  plane waves:     965
 k-point 21 :   0.0088 0.0000 0.0088  plane waves:     965
 k-point 22 :   0.0106 0.0000 0.0106  plane waves:     965
 k-point 23 :   0.0123 0.0000 0.0123  plane waves:     965
 k-point 24 :   0.0141 0.0000 0.0141  plane waves:     965
 k-point 25 :   0.0158 0.0000 0.0158  plane waves:     965
 k-point 26 :   0.0176 0.0000 0.0176  plane waves:     965
 k-point 27 :   0.0194 0.0000 0.0194  plane waves:     965
 k-point 28 :   0.0211 0.0000 0.0211  plane waves:     965
 k-point 29 :   0.0229 0.0000 0.0229  plane waves:     965
 k-point 30 :   0.0246 0.0000 0.0246  plane waves:     965
 k-point 31 :   0.0264 0.0000 0.0264  plane waves:     965
 k-point 32 :   0.0282 0.0000 0.0282  plane waves:     969
 k-point 33 :   0.0299 0.0000 0.0299  plane waves:     969
 k-point 34 :   0.0317 0.0000 0.0317  plane waves:     969
 k-point 35 :   0.0335 0.0000 0.0335  plane waves:     969
 k-point 36 :   0.0352 0.0000 0.0352  plane waves:     981
 k-point 37 :   0.0370 0.0000 0.0370  plane waves:     981
 k-point 38 :   0.0387 0.0000 0.0387  plane waves:     981
 k-point 39 :   0.0405 0.0000 0.0405  plane waves:     981
 k-point 40 :   0.0423 0.0000 0.0423  plane waves:     981
 k-point 41 :   0.0440 0.0000 0.0440  plane waves:     981
 k-point 42 :   0.0458 0.0000 0.0458  plane waves:     981
 k-point 43 :   0.0475 0.0000 0.0475  plane waves:     981
 k-point 44 :   0.0493 0.0000 0.0493  plane waves:     990
 k-point 45 :   0.0511 0.0000 0.0511  plane waves:     990
 k-point 46 :   0.0528 0.0000 0.0528  plane waves:     990
 k-point 47 :   0.0546 0.0000 0.0546  plane waves:     990
 k-point 48 :   0.0563 0.0000 0.0563  plane waves:     990
 k-point 49 :   0.0581 0.0000 0.0581  plane waves:     990
 k-point 50 :   0.0599 0.0000 0.0599  plane waves:     990
 k-point 51 :   0.0616 0.0000 0.0616  plane waves:     994
 k-point 52 :   0.0634 0.0000 0.0634  plane waves:     994
 k-point 53 :   0.0651 0.0000 0.0651  plane waves:     990
 k-point 54 :   0.0669 0.0000 0.0669  plane waves:     990
 k-point 55 :   0.0687 0.0000 0.0687  plane waves:     990
 k-point 56 :   0.0704 0.0000 0.0704  plane waves:     990
 k-point 57 :   0.0722 0.0000 0.0722  plane waves:     990
 k-point 58 :   0.0739 0.0000 0.0739  plane waves:     990
 k-point 59 :   0.0757 0.0000 0.0757  plane waves:     990
 k-point 60 :   0.0775 0.0000 0.0775  plane waves:     990
[...]
 k-point 85 :   0.1215 0.0000 0.1215  plane waves:    1002
 k-point 86 :   0.1232 0.0000 0.1232  plane waves:    1002
 k-point 87 :   0.1250 0.0000 0.1250  plane waves:     994
 k-point 88 :   0.1268 0.0000 0.1268  plane waves:     994
 k-point 89 :   0.1285 0.0000 0.1285  plane waves:     994
 k-point 90 :   0.1303 0.0000 0.1303  plane waves:     994
 k-point 91 :   0.1320 0.0000 0.1320  plane waves:     994
 k-point 92 :   0.1338 0.0000 0.1338  plane waves:     994
 k-point 93 :   0.1356 0.0000 0.1356  plane waves:     994
 k-point 94 :   0.1373 0.0000 0.1373  plane waves:     994
 k-point 95 :   0.1391 0.0000 0.1391  plane waves:     994
 k-point 96 :   0.1408 0.0000 0.1408  plane waves:     994
 k-point 97 :   0.1426 0.0000 0.1426  plane waves:     994
 k-point 98 :   0.1444 0.0000 0.1444  plane waves:     994
 k-point 99 :   0.1461 0.0000 0.1461  plane waves:     994
 k-point ** :   0.1479 0.0000 0.1479  plane waves:     994
 k-point ** :   0.1496 0.0000 0.1496  plane waves:     994
 k-point ** :   0.1514 0.0000 0.1514  plane waves:     998
 k-point ** :   0.1532 0.0000 0.1532  plane waves:     998
 k-point ** :   0.1549 0.0000 0.1549  plane waves:     998
 k-point ** :   0.1567 0.0000 0.1567  plane waves:     998
 k-point ** :   0.1585 0.0000 0.1585  plane waves:     998
 k-point ** :   0.1602 0.0000 0.1602  plane waves:     998
 k-point ** :   0.1620 0.0000 0.1620  plane waves:     998
 k-point ** :   0.1637 0.0000 0.1637  plane waves:     998
 k-point ** :   0.1655 0.0000 0.1655  plane waves:     998
 k-point ** :   0.1673 0.0000 0.1673  plane waves:     998
 k-point ** :   0.1690 0.0000 0.1690  plane waves:     998
 k-point ** :   0.1708 0.0000 0.1708  plane waves:     998
 k-point ** :   0.1725 0.0000 0.1725  plane waves:     998
 k-point ** :   0.1743 0.0000 0.1743  plane waves:     998
 k-point ** :   0.1761 0.0000 0.1761  plane waves:     998
 k-point ** :   0.1778 0.0000 0.1778  plane waves:     998
 k-point ** :   0.1796 0.0000 0.1796  plane waves:     998
 k-point ** :   0.1813 0.0000 0.1813  plane waves:     998
 k-point ** :   0.1831 0.0000 0.1831  plane waves:     998
 k-point ** :   0.1849 0.0000 0.1849  plane waves:     998
 k-point ** :   0.1866 0.0000 0.1866  plane waves:     998
 k-point ** :   0.1884 0.0000 0.1884  plane waves:     998
 k-point ** :   0.1901 0.0000 0.1901  plane waves:     998
 k-point ** :   0.1919 0.0000 0.1919  plane waves:     998
 k-point ** :   0.1937 0.0000 0.1937  plane waves:     998
 k-point ** :   0.1954 0.0000 0.1954  plane waves:     998
 k-point ** :   0.1972 0.0000 0.1972  plane waves:     998
 k-point ** :   0.1989 0.0000 0.1989  plane waves:     998
 k-point ** :   0.2007 0.0000 0.2007  plane waves:     998
 k-point ** :   0.2025 0.0000 0.2025  plane waves:     998
 k-point ** :   0.2042 0.0000 0.2042  plane waves:     998
 k-point ** :   0.2060 0.0000 0.2060  plane waves:     998
 k-point ** :   0.2077 0.0000 0.2077  plane waves:     998
 k-point ** :   0.2095 0.0000 0.2095  plane waves:     998
 k-point ** :   0.2113 0.0000 0.2113  plane waves:     998
 k-point ** :   0.2130 0.0000 0.2130  plane waves:     998
 k-point ** :   0.2148 0.0000 0.2148  plane waves:     998
 k-point ** :   0.2165 0.0000 0.2165  plane waves:     998
 k-point ** :   0.2183 0.0000 0.2183  plane waves:     998
 k-point ** :   0.2201 0.0000 0.2201  plane waves:     998
 k-point ** :   0.2218 0.0000 0.2218  plane waves:     998
 k-point ** :   0.2236 0.0000 0.2236  plane waves:     998
 k-point ** :   0.2254 0.0000 0.2254  plane waves:     998
 k-point ** :   0.2271 0.0000 0.2271  plane waves:     998
 k-point ** :   0.2289 0.0000 0.2289  plane waves:     998
 k-point ** :   0.2306 0.0000 0.2306  plane waves:     998
 k-point ** :   0.2324 0.0000 0.2324  plane waves:     998
 k-point ** :   0.2342 0.0000 0.2342  plane waves:     998
 k-point ** :   0.2359 0.0000 0.2359  plane waves:     998
 k-point ** :   0.2377 0.0000 0.2377  plane waves:     998
 k-point ** :   0.2394 0.0000 0.2394  plane waves:     998
 k-point ** :   0.2412 0.0000 0.2412  plane waves:     998
 k-point ** :   0.2430 0.0000 0.2430  plane waves:     998
 k-point ** :   0.2447 0.0000 0.2447  plane waves:     998
 k-point ** :   0.2465 0.0000 0.2465  plane waves:     998
 k-point ** :   0.2482 0.0000 0.2482  plane waves:     998
 k-point ** :   0.2500 0.0000 0.2500  plane waves:     998
 k-point ** :   0.2518 0.0000 0.2518  plane waves:     998
[...]
 k-point ** :   0.4736 0.0000 0.4736  plane waves:    1018
 k-point ** :   0.4754 0.0000 0.4754  plane waves:    1018
 k-point ** :   0.4771 0.0000 0.4771  plane waves:    1018
 k-point ** :   0.4789 0.0000 0.4789  plane waves:    1018
 k-point ** :   0.4806 0.0000 0.4806  plane waves:    1018
 k-point ** :   0.4824 0.0000 0.4824  plane waves:    1018
 k-point ** :   0.4842 0.0000 0.4842  plane waves:    1018
 k-point ** :   0.4859 0.0000 0.4859  plane waves:    1018
 k-point ** :   0.4877 0.0000 0.4877  plane waves:    1018
 k-point ** :   0.4894 0.0000 0.4894  plane waves:    1018
 k-point ** :   0.4912 0.0000 0.4912  plane waves:    1018
 k-point ** :   0.4930 0.0000 0.4930  plane waves:    1018
 k-point ** :   0.4947 0.0000 0.4947  plane waves:    1018
 k-point ** :   0.4965 0.0000 0.4965  plane waves:    1018
 k-point ** :   0.4982 0.0000 0.4982  plane waves:    1026

 maximum and minimum number of plane-waves per node :       186      153

 maximum number of plane-waves:      1034
 maximum index in each direction:
   IXMAX=    7   IYMAX=    7   IZMAX=    7
   IXMIN=   -7   IYMIN=   -7   IZMIN=   -7

 WARNING: aliasing errors must be expected set NGX to  30 to avoid them
 WARNING: aliasing errors must be expected set NGY to  30 to avoid them
 WARNING: aliasing errors must be expected set NGZ to  30 to avoid them
 aliasing errors are usually negligible using standard VASP settings
 and one can safely disregard these warnings

 parallel 3D FFT for wavefunctions:
    minimum data exchange during FFTs selected (reduces bandwidth)
 parallel 3D FFT for charge:
    minimum data exchange during FFTs selected (reduces bandwidth)

 FFT grid for exact exchange (Hartree Fock)
  NGX = 16; NGY = 16; NGZ = 16

 Radii for the augmentation spheres in the non-local exchange
 for species   1 augmentation radius   1.335 (default was   0.989)
       energy cutoff for augmentation   2000.0

 real space projection operators:
  max/ min on nodes  :         27.70         13.92

 Maximum index for augmentation-charges in exchange          197
  SETUP_FOCK is finished

 Broyden mixing: mesh for mixing (old mesh)
   NGX = 13   NGY = 13   NGZ = 13
  (NGX  = 56   NGY  = 56   NGZ  = 56)
  gives a total of   2197 points

 initial charge density was supplied:
 charge density of overlapping atoms calculated
 number of electron       8.0000000 magnetization
 charge density for first step will be calculated from the start-wavefunctions

 Maximum index for augmentation-charges         1360 (set IRDMAX)

 First call to EWALD:  gamma=   0.518
 Maximum number of real-space cells 3x 3x 3
 Maximum number of reciprocal cells 3x 3x 3

 FEWALD executed in parallel

----------------------------------------- Iteration    1(   1)  ---------------------------------------

 eigenvalue-minimisations  :  8992
 total energy-change (2. order) : 0.2089449E+03  (-0.1980786E+04)
 number of electron       8.0000000 magnetization
 augmentation part        8.0000000 magnetization

 Free energy of the ion-electron system (eV)
  alpha Z        PSCENC =         3.36228930
  Ewald energy   TEWEN  =      -228.52143995
  -Hartree energ DENC   =       -11.00937461
  -exchange      EXHF   =         0.00000000
  -V(xc)+E(xc)   XCENC  =       -14.92076487
  PAW double counting   =       171.67484864     -143.81433621
  entropy T*S    EENTRO =        -0.00017624
  eigenvalues    EBANDS =       228.14638799
  atomic energy  EATOM  =       204.02745786
  free energy    TOTEN  =       208.94489190 eV

  energy without entropy =      208.94506814  energy(sigma->0) =      208.94498002
  exchange ACFDT corr.  =         0.00000000  see jH, gK, PRB 81, 115126

[...]

 eigenvalue-minimisations  :  7528
 total energy-change (2. order) :-0.2021269E+03  (-0.1948135E+03)
 number of electron       8.0000000 magnetization
 augmentation part        8.0000000 magnetization

[...]

----------------------------------------- Iteration    1(  14)  ---------------------------------------

 eigenvalue-minimisations  :     0
 total energy-change (2. order) :-0.1823296E-06  (-0.1499041E-07)
 number of electron       8.0000001 magnetization
 augmentation part       -0.4325872 magnetization

 Free energy of the ion-electron system (eV)
  alpha Z        PSCENC =         3.36228930
  Ewald energy   TEWEN  =      -228.52143995
  -Hartree energ DENC   =       -15.17399076
  -exchange      EXHF   =        11.19367638
  -V(xc)+E(xc)   XCENC  =       -14.39310093
  PAW double counting   =      1701.69988080    -1674.03348806
  entropy T*S    EENTRO =        -0.00000000
  eigenvalues    EBANDS =        -0.38228856
  atomic energy  EATOM  =       204.02745786
  free energy    TOTEN  =       -12.22100391 eV

  energy without entropy =      -12.22100391  energy(sigma->0) =      -12.22100391
  exchange ACFDT corr.  =         0.00000000  see jH, gK, PRB 81, 115126

  average scaling for gradient   1.2581

 the core state eigenenergies are
   1-  1s    -79.5016  2s    -79.7015  2p    -79.7015
   2-  1s    -79.5016  2s    -79.7015  2p    -79.7015

 E-fermi :   5.5755     XC(G=0):  -7.8373     alpha+bet :-11.9779

 k-point     1 :       0.0000    0.0000    0.0000
  band No.  band energies     occupation
      1      -7.7961      2.00000
      2       5.4976      2.00000
      3       5.4976      2.00000
      4       5.4976      2.00000
      5       8.8077      0.00000
      6       8.8077      0.00000
      7       8.8077      0.00000
      8       9.8151      0.00000

[...]

 k-point   299 :       0.4982    0.0000    0.4982
  band No.  band energies     occupation
      1      -3.2033      2.00000
      2      -3.1422      2.00000
      3       2.3460      2.00000
      4       2.3460      2.00000
      5       6.7826      0.00000
      6       6.7961      0.00000
      7      16.9772      0.00000
      8      16.9783      0.00000

 soft charge-density along one line, spin component           1
         0         1         2         3         4         5         6         7         8         9
 total charge-density along one line

------------------------ aborting loop because EDIFF is reached ----------------------------------------

 total charge

# of ion     s       p       d       tot
  1        0.753   0.972   0.000   1.725
  2        0.753   0.972   0.000   1.725
tot        1.507   1.944   0.000   3.451

  FORCE on cell =-STRESS in cart. coord.  units (eV):
  Direction    XX          YY          ZZ          XY          YZ          ZX
  Alpha Z     3.36229     3.36229     3.36229
  Ewald     -76.17385   -76.17385   -76.17385     0.00000     0.00000    -0.00000
  Hartree     5.05799     5.05799     5.05799     0.00000    -0.00000    -0.00000
  E(xc)     -19.65143   -19.65143   -19.65143     0.00000    -0.00000    -0.00000
  Local     -29.22459   -29.22459   -29.22459     0.00001    -0.00001    -0.00001
  n-local    70.64031    75.93210    75.18300    -1.16342    -2.37031    -0.76789
  augment   -10.65096   -10.65096   -10.65096    -0.00001     0.00001     0.00001
  Kinetic    55.07394    57.18276    58.59644    -1.13693    -3.67179    -1.06870
  Fock            NaN         NaN         NaN         NaN         NaN         NaN
  Total           NaN         NaN         NaN         NaN         NaN         NaN
  in kB           NaN         NaN         NaN         NaN         NaN         NaN

 VOLUME and BASIS-vectors are now :
  energy-cutoff  :      500.00
  volume of cell :       40.05
      direct lattice vectors                 reciprocal lattice vectors
     2.715500000  2.715500000  0.000000000     0.184128153  0.184128153  0.184128153
     2.715500000  0.000000000 -2.715500000     0.184128153 -0.184128153 -0.184128153
     0.000000000  2.715500000 -2.715500000    -0.184128153  0.184128153 -0.184128153

  length of vectors
     3.840296929  3.840296929  3.840296929     0.318919316  0.318919316  0.318919316

 FORCES acting on ions:
    Electron-Ion                     Ewald-Force                    Non-Local-Force
   -.757E-08 -.475E-08 0.475E-08   -.923E-14 -.515E-14 0.930E-14   -.121E-16 0.000E+00 0.486E-16
   0.757E-08 0.475E-08 -.475E-08   0.907E-14 0.563E-14 -.939E-14   0.364E-16 0.000E+00 -.139E-16
   -.950E-08 -.164E-07 0.348E-07   -.164E-15 0.474E-15 -.970E-16   0.243E-16 0.000E+00 0.347E-16

 POSITION                                       TOTAL-FORCE (eV/Angst)
      0.00000      0.00000      0.00000              NaN           NaN           NaN
      1.35775      1.35775     -1.35775              NaN           NaN           NaN
    total drift:                                     NaN           NaN           NaN

  FREE ENERGIE OF THE ION-ELECTRON SYSTEM (eV)
  free  energy   TOTEN  =       -12.22100391 eV

  energy  without entropy=      -12.22100391  energy(sigma->0) =      -12.22100391

 reached required accuracy - stopping structural energy minimisation
 writing wavefunctions

 total charge

# of ion     s       p       d       tot
  1        0.753   0.972   0.000   1.725
  2        0.753   0.972   0.000   1.725
tot        1.507   1.944   0.000   3.451