 vasp.5.4.1 24Jun15 (build Nov 25 2015 16:01:35) complex

 executed on         CrayXC-Intel date 2016.06.03  06:42:30

 INCAR:
 POTCAR:    PAW_PBE Si 05Jan2001

 POTCAR:    PAW_PBE Si 05Jan2001
   VRHFIN =Si: s2p2

   TITEL  = PAW_PBE Si 05Jan2001
   POMASS =   28.085; ZVAL   =    4.000    mass and valenz
   ENMAX  =  245.345; ENMIN  =  184.009 eV

  PAW_PBE Si 05Jan2001                  :

 POSCAR: Si (Madelung Handbook, 295.7K)
  positions in direct lattice
  velocities in cartesian coordinates
 exchange correlation table for  LEXCH =        8
   RHO(1)=    0.500       N(1)  =     2000
   RHO(2)=  100.500       N(2)  =     4000

 ion  position               nearest neighbor table
   1  0.000  0.000  0.000-   2 2.35   2 2.35   2 2.35   2 2.35
   2  0.250  0.250  0.250-   1 2.35   1 2.35   1 2.35   1 2.35

  LATTYP: Found a face centered cubic cell.
 ALAT       =     5.4310000000

  Lattice vectors:

 A1 = (   2.7155000000,   2.7155000000,   0.0000000000)
 A2 = (   2.7155000000,   0.0000000000,  -2.7155000000)
 A3 = (   0.0000000000,   2.7155000000,  -2.7155000000)

Analysis of symmetry for initial positions (statically):
 Subroutine PRICEL returns:
 Original cell was already a primitive cell.

 Routine SETGRP: Setting up the symmetry group for a
 face centered cubic supercell.

 Subroutine GETGRP returns: Found 48 space group operations
 (whereof 24 operations were pure point group operations)
 out of a pool of 48 trial point group operations.

The static configuration has the point symmetry T_d .
 The point group associated with its full space group is O_h .

Analysis of symmetry for dynamics (positions and initial velocities):
 Subroutine PRICEL returns:
 Original cell was already a primitive cell.

 Routine SETGRP: Setting up the symmetry group for a
 face centered cubic supercell.

 Subroutine GETGRP returns: Found 48 space group operations
 (whereof 24 operations were pure point group operations)
 out of a pool of 48 trial point group operations.

The dynamic configuration has the point symmetry T_d .
 The point group associated with its full space group is O_h .

 Subroutine INISYM returns: Found 48 space group operations
 (whereof 24 operations are pure point group operations),
 and found     1 'primitive' translations

 KPOINTS: Automatically generated mesh: SCF=15, 0.
  k-points in reciprocal lattice
Space group operators:
 irot       det(A)        alpha          n_x          n_y          n_z        tau_x        tau_y        tau_z
    1     1.000000     0.000001     1.000000     0.000000     0.000000     0.000000     0.000000     0.000000
    2     1.000000   120.000000    -0.577350    -0.577350     0.577350     0.000000     0.000000     0.000000
    3     1.000000   120.000000     0.577350     0.577350    -0.577350     0.000000     0.000000     0.000000
    4    -1.000000    90.000000    -1.000000     0.000000     0.000000     0.000000     0.000000     0.000000
    5    -1.000000   180.000000     0.707107     0.707107     0.000000     0.000000     0.000000     0.000000
    6    -1.000000    90.000000     0.000000     1.000000     0.000000     0.000000     0.000000     0.000000
    7     1.000000   180.000000     1.000000     0.000000     0.000000     0.000000     0.000000     0.000000
    8     1.000000   120.000000     0.577350     0.577350     0.577350     0.000000     0.000000     0.000000
    9     1.000000   120.000000    -0.577350     0.577350     0.577350     0.000000     0.000000     0.000000
   10    -1.000000    90.000000     1.000000     0.000000     0.000000     0.000000     0.000000     0.000000
   11    -1.000000    90.000000     0.000000     0.000000     1.000000     0.000000     0.000000     0.000000
   12    -1.000000   180.000000     0.707107     0.000000    -0.707107     0.000000     0.000000     0.000000
   13     1.000000   120.000000     0.577350    -0.577350    -0.577350     0.000000     0.000000     0.000000
   14     1.000000   120.000000     0.577350    -0.577350     0.577350     0.000000     0.000000     0.000000
   15     1.000000   180.000000     0.000000     0.000000     1.000000     0.000000     0.000000     0.000000
   16    -1.000000    90.000000     0.000000    -1.000000     0.000000     0.000000     0.000000     0.000000
   17    -1.000000   180.000000     0.000000    -0.707107     0.707107     0.000000     0.000000     0.000000
   18    -1.000000    90.000000     0.000000     0.000000    -1.000000     0.000000     0.000000     0.000000
   19     1.000000   120.000000    -0.577350    -0.577350    -0.577350     0.000000     0.000000     0.000000
   20     1.000000   180.000000     0.000000     1.000000     0.000000     0.000000     0.000000     0.000000
   21     1.000000   120.000000    -0.577350     0.577350    -0.577350     0.000000     0.000000     0.000000
   22    -1.000000   180.000000     0.707107    -0.707107     0.000000     0.000000     0.000000     0.000000
   23    -1.000000   180.000000     0.000000     0.707107     0.707107     0.000000     0.000000     0.000000
   24    -1.000000   180.000000     0.707107     0.000000     0.707107     0.000000     0.000000     0.000000
   25    -1.000000     0.000001     1.000000     0.000000     0.000000     0.250000     0.250000     0.250000
   26    -1.000000   120.000000    -0.577350    -0.577350     0.577350     0.250000     0.250000     0.250000
   27    -1.000000   120.000000     0.577350     0.577350    -0.577350     0.250000     0.250000     0.250000
   28     1.000000    90.000000    -1.000000     0.000000     0.000000     0.250000     0.250000     0.250000
   29     1.000000   180.000000     0.707107     0.707107     0.000000     0.250000     0.250000     0.250000
   30     1.000000    90.000000     0.000000     1.000000     0.000000     0.250000     0.250000     0.250000
   31    -1.000000   180.000000     1.000000     0.000000     0.000000     0.250000     0.250000     0.250000
   32    -1.000000   120.000000     0.577350     0.577350     0.577350     0.250000     0.250000     0.250000
   33    -1.000000   120.000000    -0.577350     0.577350     0.577350     0.250000     0.250000     0.250000
   34     1.000000    90.000000     1.000000     0.000000     0.000000     0.250000     0.250000     0.250000
   35     1.000000    90.000000     0.000000     0.000000     1.000000     0.250000     0.250000     0.250000
   36     1.000000   180.000000     0.707107     0.000000    -0.707107     0.250000     0.250000     0.250000
   37    -1.000000   120.000000     0.577350    -0.577350    -0.577350     0.250000     0.250000     0.250000
   38    -1.000000   120.000000     0.577350    -0.577350     0.577350     0.250000     0.250000     0.250000
   39    -1.000000   180.000000     0.000000     0.000000     1.000000     0.250000     0.250000     0.250000
   40     1.000000    90.000000     0.000000    -1.000000     0.000000     0.250000     0.250000     0.250000
   41     1.000000   180.000000     0.000000    -0.707107     0.707107     0.250000     0.250000     0.250000
   42     1.000000    90.000000     0.000000     0.000000    -1.000000     0.250000     0.250000     0.250000
   43    -1.000000   120.000000    -0.577350    -0.577350    -0.577350     0.250000     0.250000     0.250000
   44    -1.000000   180.000000     0.000000     1.000000     0.000000     0.250000     0.250000     0.250000
   45    -1.000000   120.000000    -0.577350     0.577350    -0.577350     0.250000     0.250000     0.250000
   46     1.000000   180.000000     0.707107    -0.707107     0.000000     0.250000     0.250000     0.250000
   47     1.000000   180.000000     0.000000     0.707107     0.707107     0.250000     0.250000     0.250000
   48     1.000000   180.000000     0.707107     0.000000     0.707107     0.250000     0.250000     0.250000

 Subroutine IBZKPT_HF returns following result:

 Found    354 k-points in 1st BZ
 the following    354 k-points will be used (e.g. in the exchange kernel)
 Following reciprocal coordinates:   # in IRBZ
  0.000000  0.000000  0.000000    0.00490196   1 t-inv F
  0.166667  0.000000  0.000000    0.00490196   2 t-inv F
  0.333333  0.000000  0.000000    0.00490196   3 t-inv F
  0.500000  0.000000  0.000000    0.00490196   4 t-inv F
  0.166667  0.166667  0.000000    0.00490196   5 t-inv F
  0.333333  0.166667  0.000000    0.00490196   6 t-inv F
  0.500000  0.166667  0.000000    0.00490196   7 t-inv F
 -0.333333  0.166667  0.000000    0.00490196   8 t-inv F
 -0.166667  0.166667  0.000000    0.00490196   9 t-inv F
  0.333333  0.333333  0.000000    0.00490196  10 t-inv F
  0.500000  0.333333  0.000000    0.00490196  11 t-inv F
 -0.333333  0.333333  0.000000    0.00490196  12 t-inv F
  0.500000  0.500000  0.000000    0.00490196  13 t-inv F
  0.500000  0.333333  0.166667    0.00490196  14 t-inv F
 -0.333333  0.333333  0.166667    0.00490196  15 t-inv F
  0.000000  0.000000  0.000000    0.00000000  16 t-inv F
  0.013889  0.000000  0.013889    0.00000000  17 t-inv F
  0.027778  0.000000  0.027778    0.00000000  18 t-inv F
  0.041667  0.000000  0.041667    0.00000000  19 t-inv F
  0.055556  0.000000  0.055556    0.00000000  20 t-inv F
  0.069444  0.000000  0.069444    0.00000000  21 t-inv F
  0.083333  0.000000  0.083333    0.00000000  22 t-inv F
  0.097222  0.000000  0.097222    0.00000000  23 t-inv F
  0.111111  0.000000  0.111111    0.00000000  24 t-inv F
  0.125000  0.000000  0.125000    0.00000000  25 t-inv F
  0.138889  0.000000  0.138889    0.00000000  26 t-inv F
  0.152778  0.000000  0.152778    0.00000000  27 t-inv F
  0.166667  0.000000  0.166667    0.00000000  28 t-inv F
  0.180556  0.000000  0.180556    0.00000000  29 t-inv F
  0.194444  0.000000  0.194444    0.00000000  30 t-inv F
  0.208333  0.000000  0.208333    0.00000000  31 t-inv F
  0.222222  0.000000  0.222222    0.00000000  32 t-inv F
  0.236111  0.000000  0.236111    0.00000000  33 t-inv F
  0.250000  0.000000  0.250000    0.00000000  34 t-inv F
  0.263889  0.000000  0.263889    0.00000000  35 t-inv F
  0.277778  0.000000  0.277778    0.00000000  36 t-inv F
  0.291667  0.000000  0.291667    0.00000000  37 t-inv F
  0.305556  0.000000  0.305556    0.00000000  38 t-inv F
  0.319444  0.000000  0.319444    0.00000000  39 t-inv F
  0.333333  0.000000  0.333333    0.00000000  40 t-inv F
  0.347222  0.000000  0.347222    0.00000000  41 t-inv F
  0.361111  0.000000  0.361111    0.00000000  42 t-inv F
  0.375000  0.000000  0.375000    0.00000000  43 t-inv F
  0.388889  0.000000  0.388889    0.00000000  44 t-inv F
  0.402778  0.000000  0.402778    0.00000000  45 t-inv F
  0.416667  0.000000  0.416667    0.00000000  46 t-inv F
  0.430556  0.000000  0.430556    0.00000000  47 t-inv F
  0.444444  0.000000  0.444444    0.00000000  48 t-inv F
  0.458333  0.000000  0.458333    0.00000000  49 t-inv F
  0.472222  0.000000  0.472222    0.00000000  50 t-inv F
  0.486111  0.000000  0.486111    0.00000000  51 t-inv F
  0.500000  0.000000  0.500000    0.00000000  52 t-inv F
  0.494565  0.016304  0.510870    0.00000000  53 t-inv F
  0.489130  0.032609  0.521739    0.00000000  54 t-inv F
  0.483696  0.048913  0.532609    0.00000000  55 t-inv F
  0.478261  0.065217  0.543478    0.00000000  56 t-inv F
[...]
   0.49999997  0.49999997  0.49999997       0.000

 position of ions in fractional coordinates (direct lattice)
   0.00000000  0.00000000  0.00000000
   0.25000000  0.25000000  0.25000000

 position of ions in cartesian coordinates  (Angst):
   0.00000000  0.00000000  0.00000000
   1.35775000  1.35775000 -1.35775000

 k-point  1 :   0.0000 0.0000 0.0000  plane waves:     965
 k-point  2 :   0.1667 0.0000 0.0000  plane waves:     989
 k-point  3 :   0.3333 0.0000 0.0000  plane waves:    1008
 k-point  4 :   0.5000 0.0000 0.0000  plane waves:    1008
 k-point  5 :   0.1667 0.1667 0.0000  plane waves:     998
 k-point  6 :   0.3333 0.1667 0.0000  plane waves:    1011
 k-point  7 :   0.5000 0.1667 0.0000  plane waves:    1017
 k-point  8 :  -0.3333 0.1667 0.0000  plane waves:    1019
 k-point  9 :  -0.1667 0.1667 0.0000  plane waves:    1013
 k-point 10 :   0.3333 0.3333 0.0000  plane waves:    1018
 k-point 11 :   0.5000 0.3333 0.0000  plane waves:    1012
 k-point 12 :  -0.3333 0.3333 0.0000  plane waves:    1015
 k-point 13 :   0.5000 0.5000 0.0000  plane waves:    1034
 k-point 14 :   0.5000 0.3333 0.1667  plane waves:    1032
 k-point 15 :  -0.3333 0.3333 0.1667  plane waves:    1020
 k-point 16 :   0.0000 0.0000 0.0000  plane waves:     965
 k-point 17 :   0.0139 0.0000 0.0139  plane waves:     965
 k-point 18 :   0.0278 0.0000 0.0278  plane waves:     969
 k-point 19 :   0.0417 0.0000 0.0417  plane waves:     981
 k-point 20 :   0.0556 0.0000 0.0556  plane waves:     990
 k-point 21 :   0.0694 0.0000 0.0694  plane waves:     990
 k-point 22 :   0.0833 0.0000 0.0833  plane waves:    1002
 k-point 23 :   0.0972 0.0000 0.0972  plane waves:    1002
 k-point 24 :   0.1111 0.0000 0.1111  plane waves:    1002
 k-point 25 :   0.1250 0.0000 0.1250  plane waves:     994
 k-point 26 :   0.1389 0.0000 0.1389  plane waves:     994
 k-point 27 :   0.1528 0.0000 0.1528  plane waves:     998
 k-point 28 :   0.1667 0.0000 0.1667  plane waves:     998
 k-point 29 :   0.1806 0.0000 0.1806  plane waves:     998
 k-point 30 :   0.1944 0.0000 0.1944  plane waves:     998
 k-point 31 :   0.2083 0.0000 0.2083  plane waves:     998
 k-point 32 :   0.2222 0.0000 0.2222  plane waves:     998
 k-point 33 :   0.2361 0.0000 0.2361  plane waves:     998
 k-point 34 :   0.2500 0.0000 0.2500  plane waves:     998
 k-point 35 :   0.2639 0.0000 0.2639  plane waves:    1018
 k-point 36 :   0.2778 0.0000 0.2778  plane waves:    1018
 k-point 37 :   0.2917 0.0000 0.2917  plane waves:    1018
 k-point 38 :   0.3056 0.0000 0.3056  plane waves:    1018
 k-point 39 :   0.3194 0.0000 0.3194  plane waves:    1018
 k-point 40 :   0.3333 0.0000 0.3333  plane waves:    1018
 k-point 41 :   0.3472 0.0000 0.3472  plane waves:    1026
 k-point 42 :   0.3611 0.0000 0.3611  plane waves:    1026
 k-point 43 :   0.3750 0.0000 0.3750  plane waves:    1026
 k-point 44 :   0.3889 0.0000 0.3889  plane waves:    1026
 k-point 45 :   0.4028 0.0000 0.4028  plane waves:    1018
 k-point 46 :   0.4167 0.0000 0.4167  plane waves:    1018
 k-point 47 :   0.4306 0.0000 0.4306  plane waves:    1010
 k-point 48 :   0.4444 0.0000 0.4444  plane waves:    1010
 k-point 49 :   0.4583 0.0000 0.4583  plane waves:    1014
 k-point 50 :   0.4722 0.0000 0.4722  plane waves:    1018
 k-point 51 :   0.4861 0.0000 0.4861  plane waves:    1018
 k-point 52 :   0.5000 0.0000 0.5000  plane waves:    1034
 k-point 53 :   0.4946 0.0163 0.5109  plane waves:    1020
 k-point 54 :   0.4891 0.0326 0.5217  plane waves:    1020
 k-point 55 :   0.4837 0.0489 0.5326  plane waves:    1013
 k-point 56 :   0.4783 0.0652 0.5435  plane waves:    1011
 k-point 57 :   0.4728 0.0815 0.5543  plane waves:    1013
 k-point 58 :   0.4674 0.0978 0.5652  plane waves:    1017
 k-point 59 :   0.4620 0.1141 0.5761  plane waves:    1015
 k-point 60 :   0.4565 0.1304 0.5870  plane waves:    1015
[...]
 k-point 85 :   0.2935 0.2935 0.5870  plane waves:    1015
 k-point 86 :   0.2853 0.2853 0.5707  plane waves:    1015
 k-point 87 :   0.2772 0.2772 0.5543  plane waves:    1019
 k-point 88 :   0.2690 0.2690 0.5380  plane waves:    1019
 k-point 89 :   0.2609 0.2609 0.5217  plane waves:    1019
 k-point 90 :   0.2527 0.2527 0.5054  plane waves:    1019
 k-point 91 :   0.2446 0.2446 0.4891  plane waves:    1019
 k-point 92 :   0.2364 0.2364 0.4728  plane waves:    1023
 k-point 93 :   0.2283 0.2283 0.4565  plane waves:    1015
 k-point 94 :   0.2201 0.2201 0.4402  plane waves:    1015
 k-point 95 :   0.2120 0.2120 0.4239  plane waves:    1009
 k-point 96 :   0.2038 0.2038 0.4076  plane waves:    1013
 k-point 97 :   0.1957 0.1957 0.3913  plane waves:    1015
 k-point 98 :   0.1875 0.1875 0.3750  plane waves:    1009
 k-point 99 :   0.1793 0.1793 0.3587  plane waves:    1009
 k-point ** :   0.1712 0.1712 0.3424  plane waves:    1009
 k-point ** :   0.1630 0.1630 0.3261  plane waves:    1007
 k-point ** :   0.1549 0.1549 0.3098  plane waves:    1007
 k-point ** :   0.1467 0.1467 0.2935  plane waves:     999
 k-point ** :   0.1386 0.1386 0.2772  plane waves:    1003
 k-point ** :   0.1304 0.1304 0.2609  plane waves:     999
 k-point ** :   0.1223 0.1223 0.2446  plane waves:     997
 k-point ** :   0.1141 0.1141 0.2283  plane waves:    1001
 k-point ** :   0.1060 0.1060 0.2120  plane waves:     997
 k-point ** :   0.0978 0.0978 0.1957  plane waves:     997
 k-point ** :   0.0897 0.0897 0.1793  plane waves:     997
 k-point ** :   0.0815 0.0815 0.1630  plane waves:     993
 k-point ** :   0.0734 0.0734 0.1467  plane waves:     993
 k-point ** :   0.0652 0.0652 0.1304  plane waves:     993
 k-point ** :   0.0571 0.0571 0.1141  plane waves:     991
 k-point ** :   0.0489 0.0489 0.0978  plane waves:     989
 k-point ** :   0.0408 0.0408 0.0815  plane waves:     993
 k-point ** :   0.0326 0.0326 0.0652  plane waves:     981
 k-point ** :   0.0245 0.0245 0.0489  plane waves:     977
 k-point ** :   0.0163 0.0163 0.0326  plane waves:     965
 k-point ** :   0.0082 0.0082 0.0163  plane waves:     965
 k-point ** :   0.0000 0.0000 0.0000  plane waves:     965
 k-point ** :   0.0114 0.0114 0.0114  plane waves:     965
 k-point ** :   0.0227 0.0227 0.0227  plane waves:     965
 k-point ** :   0.0341 0.0341 0.0341  plane waves:     974
 k-point ** :   0.0455 0.0455 0.0455  plane waves:     977
 k-point ** :   0.0568 0.0568 0.0568  plane waves:     983
 k-point ** :   0.0682 0.0682 0.0682  plane waves:     980
 k-point ** :   0.0795 0.0795 0.0795  plane waves:     992
 k-point ** :   0.0909 0.0909 0.0909  plane waves:     992
 k-point ** :   0.1023 0.1023 0.1023  plane waves:     995
 k-point ** :   0.1136 0.1136 0.1136  plane waves:     995
 k-point ** :   0.1250 0.1250 0.1250  plane waves:     995
 k-point ** :   0.1364 0.1364 0.1364  plane waves:     989
 k-point ** :   0.1477 0.1477 0.1477  plane waves:     989
 k-point ** :   0.1591 0.1591 0.1591  plane waves:     989
 k-point ** :   0.1705 0.1705 0.1705  plane waves:     989
 k-point ** :   0.1818 0.1818 0.1818  plane waves:     995
 k-point ** :   0.1932 0.1932 0.1932  plane waves:    1001
 k-point ** :   0.2045 0.2045 0.2045  plane waves:    1001
 k-point ** :   0.2159 0.2159 0.2159  plane waves:    1001
 k-point ** :   0.2273 0.2273 0.2273  plane waves:    1001
 k-point ** :   0.2386 0.2386 0.2386  plane waves:    1001
 k-point ** :   0.2500 0.2500 0.2500  plane waves:    1001
 k-point ** :   0.2614 0.2614 0.2614  plane waves:    1013
 k-point ** :   0.2727 0.2727 0.2727  plane waves:    1010
 k-point ** :   0.2841 0.2841 0.2841  plane waves:    1011
 k-point ** :   0.2955 0.2955 0.2955  plane waves:    1011
 k-point ** :   0.3068 0.3068 0.3068  plane waves:    1008
 k-point ** :   0.3182 0.3182 0.3182  plane waves:    1008
 k-point ** :   0.3295 0.3295 0.3295  plane waves:    1008
 k-point ** :   0.3409 0.3409 0.3409  plane waves:    1008
 k-point ** :   0.3523 0.3523 0.3523  plane waves:    1008
 k-point ** :   0.3636 0.3636 0.3636  plane waves:    1014
 k-point ** :   0.3750 0.3750 0.3750  plane waves:    1017
 k-point ** :   0.3864 0.3864 0.3864  plane waves:    1017
 k-point ** :   0.3977 0.3977 0.3977  plane waves:    1017
 k-point ** :   0.4091 0.4091 0.4091  plane waves:    1023
 k-point ** :   0.4205 0.4205 0.4205  plane waves:    1023
 k-point ** :   0.4318 0.4318 0.4318  plane waves:    1023
 k-point ** :   0.4432 0.4432 0.4432  plane waves:    1026
 k-point ** :   0.4545 0.4545 0.4545  plane waves:    1026
 k-point ** :   0.4659 0.4659 0.4659  plane waves:    1020
 k-point ** :   0.4773 0.4773 0.4773  plane waves:    1020
 k-point ** :   0.4886 0.4886 0.4886  plane waves:    1008
 k-point ** :   0.5000 0.5000 0.5000  plane waves:    1008

 maximum and minimum number of plane-waves per node :       191      153

 maximum number of plane-waves:      1034
 maximum index in each direction:
   IXMAX=    7   IYMAX=    7   IZMAX=    7
   IXMIN=   -7   IYMIN=   -7   IZMIN=   -7

 WARNING: aliasing errors must be expected set NGX to  30 to avoid them
 WARNING: aliasing errors must be expected set NGY to  30 to avoid them
 WARNING: aliasing errors must be expected set NGZ to  30 to avoid them
 aliasing errors are usually negligible using standard VASP settings
 and one can safely disregard these warnings

 parallel 3D FFT for wavefunctions:
    minimum data exchange during FFTs selected (reduces bandwidth)
 parallel 3D FFT for charge:
    minimum data exchange during FFTs selected (reduces bandwidth)

 FFT grid for exact exchange (Hartree Fock)
  NGX = 16; NGY = 16; NGZ = 16

 Radii for the augmentation spheres in the non-local exchange
 for species   1 augmentation radius   1.335 (default was   0.989)
       energy cutoff for augmentation   2000.0

 real space projection operators:
  max/ min on nodes  :         27.70         13.92

 Maximum index for augmentation-charges in exchange          197
  SETUP_FOCK is finished

 Broyden mixing: mesh for mixing (old mesh)
   NGX = 13   NGY = 13   NGZ = 13
  (NGX  = 56   NGY  = 56   NGZ  = 56)
  gives a total of   2197 points

 initial charge density was supplied:
 charge density of overlapping atoms calculated
 number of electron       8.0000000 magnetization
 charge density for first step will be calculated from the start-wavefunctions

 Maximum index for augmentation-charges         1360 (set IRDMAX)

 First call to EWALD:  gamma=   0.518
 Maximum number of real-space cells 3x 3x 3
 Maximum number of reciprocal cells 3x 3x 3

 FEWALD executed in parallel

----------------------------------------- Iteration    1(   1)  ---------------------------------------

 eigenvalue-minimisations  :  4984
 total energy-change (2. order) : 0.2089449E+03  (-0.1980786E+04)
 number of electron       8.0000000 magnetization
 augmentation part        8.0000000 magnetization

 Free energy of the ion-electron system (eV)
  alpha Z        PSCENC =         3.36228930
  Ewald energy   TEWEN  =      -228.52143995
  -Hartree energ DENC   =       -11.00937461
  -exchange      EXHF   =         0.00000000
  -V(xc)+E(xc)   XCENC  =       -14.92076487
  PAW double counting   =       171.67484864     -143.81433621
  entropy T*S    EENTRO =        -0.00017624
  eigenvalues    EBANDS =       228.14638799
  atomic energy  EATOM  =       204.02745786
  free energy    TOTEN  =       208.94489191 eV

  energy without entropy =      208.94506814  energy(sigma->0) =      208.94498002
  exchange ACFDT corr.  =         0.00000000  see jH, gK, PRB 81, 115126

[...]

 eigenvalue-minimisations  :  4128
 total energy-change (2. order) :-0.2021269E+03  (-0.1948135E+03)
 number of electron       8.0000000 magnetization
 augmentation part        8.0000000 magnetization

[...]

----------------------------------------- Iteration    1(  14)  ---------------------------------------

 eigenvalue-minimisations  :     0
 total energy-change (2. order) :-0.1823939E-06  (-0.1495615E-07)
 number of electron       8.0000001 magnetization
 augmentation part       -0.4325872 magnetization

 Free energy of the ion-electron system (eV)
  alpha Z        PSCENC =         3.36228930
  Ewald energy   TEWEN  =      -228.52143995
  -Hartree energ DENC   =       -15.17399084
  -exchange      EXHF   =        11.19367639
  -V(xc)+E(xc)   XCENC  =       -14.39310092
  PAW double counting   =      1701.70005918    -1674.03366644
  entropy T*S    EENTRO =        -0.00000000
  eigenvalues    EBANDS =        -0.38228850
  atomic energy  EATOM  =       204.02745786
  free energy    TOTEN  =       -12.22100391 eV

  energy without entropy =      -12.22100391  energy(sigma->0) =      -12.22100391
  exchange ACFDT corr.  =         0.00000000  see jH, gK, PRB 81, 115126

  average scaling for gradient   1.2236

 the core state eigenenergies are
   1-  1s    -79.5016  2s    -79.7015  2p    -79.7015
   2-  1s    -79.5016  2s    -79.7015  2p    -79.7015

 E-fermi :   5.5633     XC(G=0):  -7.8373     alpha+bet :-11.9779

 k-point     1 :       0.0000    0.0000    0.0000
  band No.  band energies     occupation
      1      -7.7961      2.00000
      2       5.4976      2.00000
      3       5.4976      2.00000
      4       5.4976      2.00000
      5       8.8077      0.00000
      6       8.8077      0.00000
      7       8.8077      0.00000
      8       9.8151      0.00000

[...]

 k-point   165 :       0.5000    0.5000    0.5000
  band No.  band energies     occupation
      1      -5.2004      2.00000
      2      -2.2211      2.00000
      3       4.1752      2.00000
      4       4.1752      2.00000
      5       7.7377      0.00000
      6       9.6286      0.00000
      7       9.6286      0.00000
      8      14.1043      0.00000

 soft charge-density along one line, spin component           1
         0         1         2         3         4         5         6         7         8         9
 total charge-density along one line

------------------------ aborting loop because EDIFF is reached ----------------------------------------

 total charge

# of ion     s       p       d       tot
  1        0.753   0.972   0.000   1.725
  2        0.753   0.972   0.000   1.725
tot        1.507   1.944   0.000   3.451

  FORCE on cell =-STRESS in cart. coord.  units (eV):
  Direction    XX          YY          ZZ          XY          YZ          ZX
  Alpha Z     3.36229     3.36229     3.36229
  Ewald     -76.17385   -76.17385   -76.17385     0.00000     0.00000    -0.00000
  Hartree     5.05799     5.05799     5.05799     0.00000    -0.00000    -0.00000
  E(xc)     -19.65143   -19.65143   -19.65143     0.00000    -0.00000    -0.00000
  Local     -29.22459   -29.22459   -29.22459     0.00001    -0.00001    -0.00001
  n-local    70.64031    75.93210    75.18300    -1.16342    -2.37031    -0.76789
  augment   -10.65096   -10.65096   -10.65096    -0.00001     0.00001     0.00001
  Kinetic    55.07394    57.18276    58.59644    -1.13693    -3.67179    -1.06870
  Fock            NaN         NaN         NaN         NaN         NaN         NaN
  Total           NaN         NaN         NaN         NaN         NaN         NaN
  in kB           NaN         NaN         NaN         NaN         NaN         NaN

 VOLUME and BASIS-vectors are now :
  energy-cutoff  :      500.00
  volume of cell :       40.05
      direct lattice vectors                 reciprocal lattice vectors
     2.715500000  2.715500000  0.000000000     0.184128153  0.184128153  0.184128153
     2.715500000  0.000000000 -2.715500000     0.184128153 -0.184128153 -0.184128153
     0.000000000  2.715500000 -2.715500000    -0.184128153  0.184128153 -0.184128153

  length of vectors
     3.840296929  3.840296929  3.840296929     0.318919316  0.318919316  0.318919316

 FORCES acting on ions:
    Electron-Ion                     Ewald-Force                    Non-Local-Force
   -.757E-08 -.475E-08 0.475E-08   -.923E-14 -.515E-14 0.930E-14   0.156E-16 0.208E-16 -.139E-16
   0.757E-08 0.475E-08 -.475E-08   0.907E-14 0.563E-14 -.939E-14   -.156E-16 -.208E-16 -.694E-17
   -.150E-06 -.169E-06 0.177E-06   -.164E-15 0.474E-15 -.970E-16   0.000E+00 0.000E+00 -.208E-16

 POSITION                                       TOTAL-FORCE (eV/Angst)
      0.00000      0.00000      0.00000              NaN           NaN           NaN
      1.35775      1.35775     -1.35775              NaN           NaN           NaN
    total drift:                                     NaN           NaN           NaN

  FREE ENERGIE OF THE ION-ELECTRON SYSTEM (eV)
  free  energy   TOTEN  =       -12.22100391 eV

  energy  without entropy=      -12.22100391  energy(sigma->0) =      -12.22100391

 reached required accuracy - stopping structural energy minimisation
 writing wavefunctions

 total charge

# of ion     s       p       d       tot
  1        0.753   0.972   0.000   1.725
  2        0.753   0.972   0.000   1.725
tot        1.507   1.944   0.000   3.451