 vasp.5.4.1 24Jun15 (build Nov 25 2015 16:01:35) complex

 executed on         CrayXC-Intel date 2016.06.01  18:09:29

 INCAR:
 POTCAR:    PAW_PBE Si 05Jan2001

 POTCAR:    PAW_PBE Si 05Jan2001
   VRHFIN =Si: s2p2

   TITEL  = PAW_PBE Si 05Jan2001
   POMASS =   28.085; ZVAL   =    4.000    mass and valenz
   ENMAX  =  245.345; ENMIN  =  184.009 eV

  PAW_PBE Si 05Jan2001                  :

 POSCAR: Si (Madelung Handbook, 295.7K)
  positions in direct lattice
  velocities in cartesian coordinates
 exchange correlation table for  LEXCH =       14
   RHO(1)=    0.500       N(1)  =     2000
   RHO(2)=  100.500       N(2)  =     4000

 ion  position               nearest neighbor table
   1  0.000  0.000  0.000-   2 2.35   2 2.35   2 2.35   2 2.35
   2  0.250  0.250  0.250-   1 2.35   1 2.35   1 2.35   1 2.35

  LATTYP: Found a face centered cubic cell.
 ALAT       =     5.4310000000

  Lattice vectors:

 A1 = (   2.7155000000,   2.7155000000,   0.0000000000)
 A2 = (   2.7155000000,   0.0000000000,  -2.7155000000)
 A3 = (   0.0000000000,   2.7155000000,  -2.7155000000)

Analysis of symmetry for initial positions (statically):
 Subroutine PRICEL returns:
 Original cell was already a primitive cell.

 Routine SETGRP: Setting up the symmetry group for a
 face centered cubic supercell.

 Subroutine GETGRP returns: Found 48 space group operations
 (whereof 24 operations were pure point group operations)
 out of a pool of 48 trial point group operations.

The static configuration has the point symmetry T_d .
 The point group associated with its full space group is O_h .

Analysis of symmetry for dynamics (positions and initial velocities):
 Subroutine PRICEL returns:
 Original cell was already a primitive cell.

 Routine SETGRP: Setting up the symmetry group for a
 face centered cubic supercell.

 Subroutine GETGRP returns: Found 48 space group operations
 (whereof 24 operations were pure point group operations)
 out of a pool of 48 trial point group operations.

The dynamic configuration has the point symmetry T_d .
 The point group associated with its full space group is O_h .

 Subroutine INISYM returns: Found 48 space group operations
 (whereof 24 operations are pure point group operations),
 and found     1 'primitive' translations

 KPOINTS: Automatically generated mesh: SCF=15, 0.
  k-points in reciprocal lattice
Space group operators:
 irot       det(A)        alpha          n_x          n_y          n_z        tau_x        tau_y        tau_z
    1     1.000000     0.000001     1.000000     0.000000     0.000000     0.000000     0.000000     0.000000
    2     1.000000   120.000000    -0.577350    -0.577350     0.577350     0.000000     0.000000     0.000000
    3     1.000000   120.000000     0.577350     0.577350    -0.577350     0.000000     0.000000     0.000000
    4    -1.000000    90.000000    -1.000000     0.000000     0.000000     0.000000     0.000000     0.000000
    5    -1.000000   180.000000     0.707107     0.707107     0.000000     0.000000     0.000000     0.000000
    6    -1.000000    90.000000     0.000000     1.000000     0.000000     0.000000     0.000000     0.000000
    7     1.000000   180.000000     1.000000     0.000000     0.000000     0.000000     0.000000     0.000000
    8     1.000000   120.000000     0.577350     0.577350     0.577350     0.000000     0.000000     0.000000
    9     1.000000   120.000000    -0.577350     0.577350     0.577350     0.000000     0.000000     0.000000
   10    -1.000000    90.000000     1.000000     0.000000     0.000000     0.000000     0.000000     0.000000
   11    -1.000000    90.000000     0.000000     0.000000     1.000000     0.000000     0.000000     0.000000
   12    -1.000000   180.000000     0.707107     0.000000    -0.707107     0.000000     0.000000     0.000000
   13     1.000000   120.000000     0.577350    -0.577350    -0.577350     0.000000     0.000000     0.000000
   14     1.000000   120.000000     0.577350    -0.577350     0.577350     0.000000     0.000000     0.000000
   15     1.000000   180.000000     0.000000     0.000000     1.000000     0.000000     0.000000     0.000000
   16    -1.000000    90.000000     0.000000    -1.000000     0.000000     0.000000     0.000000     0.000000
   17    -1.000000   180.000000     0.000000    -0.707107     0.707107     0.000000     0.000000     0.000000
   18    -1.000000    90.000000     0.000000     0.000000    -1.000000     0.000000     0.000000     0.000000
   19     1.000000   120.000000    -0.577350    -0.577350    -0.577350     0.000000     0.000000     0.000000
   20     1.000000   180.000000     0.000000     1.000000     0.000000     0.000000     0.000000     0.000000
   21     1.000000   120.000000    -0.577350     0.577350    -0.577350     0.000000     0.000000     0.000000
   22    -1.000000   180.000000     0.707107    -0.707107     0.000000     0.000000     0.000000     0.000000
   23    -1.000000   180.000000     0.000000     0.707107     0.707107     0.000000     0.000000     0.000000
   24    -1.000000   180.000000     0.707107     0.000000     0.707107     0.000000     0.000000     0.000000
   25    -1.000000     0.000001     1.000000     0.000000     0.000000     0.250000     0.250000     0.250000
   26    -1.000000   120.000000    -0.577350    -0.577350     0.577350     0.250000     0.250000     0.250000
   27    -1.000000   120.000000     0.577350     0.577350    -0.577350     0.250000     0.250000     0.250000
   28     1.000000    90.000000    -1.000000     0.000000     0.000000     0.250000     0.250000     0.250000
   29     1.000000   180.000000     0.707107     0.707107     0.000000     0.250000     0.250000     0.250000
   30     1.000000    90.000000     0.000000     1.000000     0.000000     0.250000     0.250000     0.250000
   31    -1.000000   180.000000     1.000000     0.000000     0.000000     0.250000     0.250000     0.250000
   32    -1.000000   120.000000     0.577350     0.577350     0.577350     0.250000     0.250000     0.250000
   33    -1.000000   120.000000    -0.577350     0.577350     0.577350     0.250000     0.250000     0.250000
   34     1.000000    90.000000     1.000000     0.000000     0.000000     0.250000     0.250000     0.250000
   35     1.000000    90.000000     0.000000     0.000000     1.000000     0.250000     0.250000     0.250000
   36     1.000000   180.000000     0.707107     0.000000    -0.707107     0.250000     0.250000     0.250000
   37    -1.000000   120.000000     0.577350    -0.577350    -0.577350     0.250000     0.250000     0.250000
   38    -1.000000   120.000000     0.577350    -0.577350     0.577350     0.250000     0.250000     0.250000
   39    -1.000000   180.000000     0.000000     0.000000     1.000000     0.250000     0.250000     0.250000
   40     1.000000    90.000000     0.000000    -1.000000     0.000000     0.250000     0.250000     0.250000
   41     1.000000   180.000000     0.000000    -0.707107     0.707107     0.250000     0.250000     0.250000
   42     1.000000    90.000000     0.000000     0.000000    -1.000000     0.250000     0.250000     0.250000
   43    -1.000000   120.000000    -0.577350    -0.577350    -0.577350     0.250000     0.250000     0.250000
   44    -1.000000   180.000000     0.000000     1.000000     0.000000     0.250000     0.250000     0.250000
   45    -1.000000   120.000000    -0.577350     0.577350    -0.577350     0.250000     0.250000     0.250000
   46     1.000000   180.000000     0.707107    -0.707107     0.000000     0.250000     0.250000     0.250000
   47     1.000000   180.000000     0.000000     0.707107     0.707107     0.250000     0.250000     0.250000
   48     1.000000   180.000000     0.707107     0.000000     0.707107     0.250000     0.250000     0.250000

 I would recommend the setting:
   dimension x,y,z NGX =    28 NGY =   28 NGZ =   28
 SYSTEM =  Name
 POSCAR =  Si (Madelung Handbook, 295.7K)

 Startparameter for this run:
   NWRITE =      2    write-flag & timer
   PREC   = accura    normal or accurate (medium, high low for compatibility)
   ISTART =      0    job   : 0-new  1-cont  2-samecut
   ICHARG =     11    charge: 1-file 2-atom 10-const
   ISPIN  =      1    spin polarized calculation?
   LNONCOLLINEAR =      F non collinear calculations
   LSORBIT =      F    spin-orbit coupling
   INIWAV =      1    electr: 0-lowe 1-rand  2-diag
   LASPH  =      F    aspherical Exc in radial PAW
   METAGGA=      F    non-selfconsistent MetaGGA calc.

 Electronic Relaxation 1
   ENCUT  =  500.0 eV  36.75 Ry    6.06 a.u.   7.00  7.00  7.00*2*pi/ulx,y,z
   ENINI  =  500.0     initial cutoff
   ENAUG  =  322.1 eV  augmentation charge cutoff
   NELM   =     60;   NELMIN=  2; NELMDL=  0     # of ELM steps
   EDIFF  = 0.1E-05   stopping-criterion for ELM
   LREAL  =      F    real-space projection
   NLSPLINE    = F    spline interpolate recip. space projectors
   LCOMPAT=      F    compatible to vasp.4.4
   GGA_COMPAT  = T    GGA compatible to vasp.4.4-vasp.4.6
   LMAXPAW     = -100 max onsite density
   LMAXMIX     =    2 max onsite mixed and CHGCAR
   VOSKOWN=      0    Vosko Wilk Nusair interpolation
   ROPT   =    0.00000
 Ionic relaxation
   EDIFFG = -.5E-02   stopping-criterion for IOM
   NSW    =      1    number of steps for IOM
   NBLOCK =      1;   KBLOCK =      1    inner block; outer block
   IBRION =      2    ionic relax: 0-MD 1-quasi-New 2-CG
   NFREE  =      1    steps in history (QN), initial steepest desc. (CG)
   ISIF   =      3    stress and relaxation
   IWAVPR =     11    prediction:  0-non 1-charg 2-wave 3-comb
   ISYM   =      2    0-nonsym 1-usesym 2-fastsym
   LCORR  =      T    Harris-Foulkes like correction to forces

   POTIM  = 0.5000    time-step for ionic-motion
   TEIN   =    0.0    initial temperature
   TEBEG  =    0.0;   TEEND  =   0.0 temperature during run
   SMASS  =  -3.00    Nose mass-parameter (am)
   estimated Nose-frequenzy (Omega)   =  0.10E-29 period in steps =****** mass=  -0.337E-27a.u.
   SCALEE = 1.0000    scale energy and forces
   NPACO  =    256;   APACO  = 16.0  distance and # of slots for P.C.
   PSTRESS=    0.0 pullay stress

  Mass of Ions in am
   POMASS =  28.09
  Ionic Valenz
   ZVAL   =   4.00
  Atomic Wigner-Seitz radii
  virtual crystal weights
   VCA    =   1.00
   NELECT =       8.0000    total number of electrons
   NUPDOWN=      -1.0000    fix difference up-down

 DOS related values:
   EMIN   =  10.00;   EMAX   =-10.00  energy-range for DOS
   EFERMI =   0.00
   ISMEAR =     0;   SIGMA  =   0.01  broadening in eV -4-tet -1-fermi 0-gaus

 Electronic relaxation 2 (details)
   IALGO  =     38    algorithm
   LDIAG  =      T    sub-space diagonalisation (order eigenvalues)
   LSUBROT=      F    optimize rotation matrix (better conditioning)
   TURBO    =      0    0=normal 1=particle mesh
   IRESTART =      0    0=no restart 2=restart with 2 vectors
   NREBOOT  =      0    no. of reboots
   NMIN     =      0    reboot dimension
   EREF     =   0.00    reference energy to select bands
   IMIX   =      4    mixing-type and parameters
     AMIX     =   0.40;   BMIX     =  1.00
     AMIX_MAG =   1.60;   BMIX_MAG =  1.00
     AMIN     =   0.01
[...]
   0.35227272  0.35227272  0.35227272       0.000
   0.36363634  0.36363634  0.36363634       0.000
   0.37500000  0.37500000  0.37500000       0.000
   0.38636363  0.38636363  0.38636363       0.000
   0.39772725  0.39772725  0.39772725       0.000
   0.40909088  0.40909088  0.40909088       0.000
   0.42045453  0.42045453  0.42045453       0.000
   0.43181819  0.43181819  0.43181819       0.000
   0.44318178  0.44318178  0.44318178       0.000
   0.45454544  0.45454544  0.45454544       0.000
   0.46590906  0.46590906  0.46590906       0.000
   0.47727272  0.47727272  0.47727272       0.000
   0.48863634  0.48863634  0.48863634       0.000
   0.49999997  0.49999997  0.49999997       0.000

 position of ions in fractional coordinates (direct lattice)
   0.00000000  0.00000000  0.00000000
   0.25000000  0.25000000  0.25000000

 position of ions in cartesian coordinates  (Angst):
   0.00000000  0.00000000  0.00000000
   1.35775000  1.35775000 -1.35775000

 k-point  1 :   0.0000 0.0000 0.0000  plane waves:     965
 k-point  2 :   0.1667 0.0000 0.0000  plane waves:     989
 k-point  3 :   0.3333 0.0000 0.0000  plane waves:    1008
 k-point  4 :   0.5000 0.0000 0.0000  plane waves:    1008
 k-point  5 :   0.1667 0.1667 0.0000  plane waves:     998
 k-point  6 :   0.3333 0.1667 0.0000  plane waves:    1011
 k-point  7 :   0.5000 0.1667 0.0000  plane waves:    1017
 k-point  8 :  -0.3333 0.1667 0.0000  plane waves:    1019
 k-point  9 :  -0.1667 0.1667 0.0000  plane waves:    1013
 k-point 10 :   0.3333 0.3333 0.0000  plane waves:    1018
 k-point 11 :   0.5000 0.3333 0.0000  plane waves:    1012
 k-point 12 :  -0.3333 0.3333 0.0000  plane waves:    1015
 k-point 13 :   0.5000 0.5000 0.0000  plane waves:    1034
 k-point 14 :   0.5000 0.3333 0.1667  plane waves:    1032
 k-point 15 :  -0.3333 0.3333 0.1667  plane waves:    1020
 k-point 16 :   0.0000 0.0000 0.0000  plane waves:     965
 k-point 17 :   0.0139 0.0000 0.0139  plane waves:     965
 k-point 18 :   0.0278 0.0000 0.0278  plane waves:     969
 k-point 19 :   0.0417 0.0000 0.0417  plane waves:     981
 k-point 20 :   0.0556 0.0000 0.0556  plane waves:     990
 k-point 21 :   0.0694 0.0000 0.0694  plane waves:     990
 k-point 22 :   0.0833 0.0000 0.0833  plane waves:    1002
 k-point 23 :   0.0972 0.0000 0.0972  plane waves:    1002
 k-point 24 :   0.1111 0.0000 0.1111  plane waves:    1002
 k-point 25 :   0.1250 0.0000 0.1250  plane waves:     994
 k-point 26 :   0.1389 0.0000 0.1389  plane waves:     994
 k-point 27 :   0.1528 0.0000 0.1528  plane waves:     998
 k-point 28 :   0.1667 0.0000 0.1667  plane waves:     998
 k-point 29 :   0.1806 0.0000 0.1806  plane waves:     998
 k-point 30 :   0.1944 0.0000 0.1944  plane waves:     998
 k-point 31 :   0.2083 0.0000 0.2083  plane waves:     998
 k-point 32 :   0.2222 0.0000 0.2222  plane waves:     998
 k-point 33 :   0.2361 0.0000 0.2361  plane waves:     998
 k-point 34 :   0.2500 0.0000 0.2500  plane waves:     998
 k-point 35 :   0.2639 0.0000 0.2639  plane waves:    1018
 k-point 36 :   0.2778 0.0000 0.2778  plane waves:    1018
 k-point 37 :   0.2917 0.0000 0.2917  plane waves:    1018
 k-point 38 :   0.3056 0.0000 0.3056  plane waves:    1018
 k-point 39 :   0.3194 0.0000 0.3194  plane waves:    1018
 k-point 40 :   0.3333 0.0000 0.3333  plane waves:    1018
 k-point 41 :   0.3472 0.0000 0.3472  plane waves:    1026
 k-point 42 :   0.3611 0.0000 0.3611  plane waves:    1026
 k-point 43 :   0.3750 0.0000 0.3750  plane waves:    1026
 k-point 44 :   0.3889 0.0000 0.3889  plane waves:    1026
 k-point 45 :   0.4028 0.0000 0.4028  plane waves:    1018
 k-point 46 :   0.4167 0.0000 0.4167  plane waves:    1018
 k-point 47 :   0.4306 0.0000 0.4306  plane waves:    1010
 k-point 48 :   0.4444 0.0000 0.4444  plane waves:    1010
 k-point 49 :   0.4583 0.0000 0.4583  plane waves:    1014
 k-point 50 :   0.4722 0.0000 0.4722  plane waves:    1018
 k-point 51 :   0.4861 0.0000 0.4861  plane waves:    1018
 k-point 52 :   0.5000 0.0000 0.5000  plane waves:    1034
 k-point 53 :   0.4946 0.0163 0.5109  plane waves:    1020
 k-point 54 :   0.4891 0.0326 0.5217  plane waves:    1020
 k-point 55 :   0.4837 0.0489 0.5326  plane waves:    1013
 k-point 56 :   0.4783 0.0652 0.5435  plane waves:    1011
 k-point 57 :   0.4728 0.0815 0.5543  plane waves:    1013
 k-point 58 :   0.4674 0.0978 0.5652  plane waves:    1017
 k-point 59 :   0.4620 0.1141 0.5761  plane waves:    1015
 k-point 60 :   0.4565 0.1304 0.5870  plane waves:    1015
[...]
 k-point 85 :   0.2935 0.2935 0.5870  plane waves:    1015
 k-point 86 :   0.2853 0.2853 0.5707  plane waves:    1015
 k-point 87 :   0.2772 0.2772 0.5543  plane waves:    1019
 k-point 88 :   0.2690 0.2690 0.5380  plane waves:    1019
 k-point 89 :   0.2609 0.2609 0.5217  plane waves:    1019
 k-point 90 :   0.2527 0.2527 0.5054  plane waves:    1019
 k-point 91 :   0.2446 0.2446 0.4891  plane waves:    1019
 k-point 92 :   0.2364 0.2364 0.4728  plane waves:    1023
 k-point 93 :   0.2283 0.2283 0.4565  plane waves:    1015
 k-point 94 :   0.2201 0.2201 0.4402  plane waves:    1015
 k-point 95 :   0.2120 0.2120 0.4239  plane waves:    1009
 k-point 96 :   0.2038 0.2038 0.4076  plane waves:    1013
 k-point 97 :   0.1957 0.1957 0.3913  plane waves:    1015
 k-point 98 :   0.1875 0.1875 0.3750  plane waves:    1009
 k-point 99 :   0.1793 0.1793 0.3587  plane waves:    1009
 k-point ** :   0.1712 0.1712 0.3424  plane waves:    1009
 k-point ** :   0.1630 0.1630 0.3261  plane waves:    1007
 k-point ** :   0.1549 0.1549 0.3098  plane waves:    1007
 k-point ** :   0.1467 0.1467 0.2935  plane waves:     999
 k-point ** :   0.1386 0.1386 0.2772  plane waves:    1003
 k-point ** :   0.1304 0.1304 0.2609  plane waves:     999
 k-point ** :   0.1223 0.1223 0.2446  plane waves:     997
 k-point ** :   0.1141 0.1141 0.2283  plane waves:    1001
 k-point ** :   0.1060 0.1060 0.2120  plane waves:     997
 k-point ** :   0.0978 0.0978 0.1957  plane waves:     997
 k-point ** :   0.0897 0.0897 0.1793  plane waves:     997
 k-point ** :   0.0815 0.0815 0.1630  plane waves:     993
 k-point ** :   0.0734 0.0734 0.1467  plane waves:     993
 k-point ** :   0.0652 0.0652 0.1304  plane waves:     993
 k-point ** :   0.0571 0.0571 0.1141  plane waves:     991
 k-point ** :   0.0489 0.0489 0.0978  plane waves:     989
 k-point ** :   0.0408 0.0408 0.0815  plane waves:     993
 k-point ** :   0.0326 0.0326 0.0652  plane waves:     981
 k-point ** :   0.0245 0.0245 0.0489  plane waves:     977
 k-point ** :   0.0163 0.0163 0.0326  plane waves:     965
 k-point ** :   0.0082 0.0082 0.0163  plane waves:     965
 k-point ** :   0.0000 0.0000 0.0000  plane waves:     965
 k-point ** :   0.0114 0.0114 0.0114  plane waves:     965
 k-point ** :   0.0227 0.0227 0.0227  plane waves:     965
 k-point ** :   0.0341 0.0341 0.0341  plane waves:     974
 k-point ** :   0.0455 0.0455 0.0455  plane waves:     977
 k-point ** :   0.0568 0.0568 0.0568  plane waves:     983
 k-point ** :   0.0682 0.0682 0.0682  plane waves:     980
 k-point ** :   0.0795 0.0795 0.0795  plane waves:     992
 k-point ** :   0.0909 0.0909 0.0909  plane waves:     992
 k-point ** :   0.1023 0.1023 0.1023  plane waves:     995
 k-point ** :   0.1136 0.1136 0.1136  plane waves:     995
 k-point ** :   0.1250 0.1250 0.1250  plane waves:     995
 k-point ** :   0.1364 0.1364 0.1364  plane waves:     989
 k-point ** :   0.1477 0.1477 0.1477  plane waves:     989
 k-point ** :   0.1591 0.1591 0.1591  plane waves:     989
 k-point ** :   0.1705 0.1705 0.1705  plane waves:     989
 k-point ** :   0.1818 0.1818 0.1818  plane waves:     995
 k-point ** :   0.1932 0.1932 0.1932  plane waves:    1001
 k-point ** :   0.2045 0.2045 0.2045  plane waves:    1001
 k-point ** :   0.2159 0.2159 0.2159  plane waves:    1001
 k-point ** :   0.2273 0.2273 0.2273  plane waves:    1001
 k-point ** :   0.2386 0.2386 0.2386  plane waves:    1001
 k-point ** :   0.2500 0.2500 0.2500  plane waves:    1001
 k-point ** :   0.2614 0.2614 0.2614  plane waves:    1013
 k-point ** :   0.2727 0.2727 0.2727  plane waves:    1010
 k-point ** :   0.2841 0.2841 0.2841  plane waves:    1011
 k-point ** :   0.2955 0.2955 0.2955  plane waves:    1011
 k-point ** :   0.3068 0.3068 0.3068  plane waves:    1008
 k-point ** :   0.3182 0.3182 0.3182  plane waves:    1008
 k-point ** :   0.3295 0.3295 0.3295  plane waves:    1008
 k-point ** :   0.3409 0.3409 0.3409  plane waves:    1008
 k-point ** :   0.3523 0.3523 0.3523  plane waves:    1008
 k-point ** :   0.3636 0.3636 0.3636  plane waves:    1014
 k-point ** :   0.3750 0.3750 0.3750  plane waves:    1017
 k-point ** :   0.3864 0.3864 0.3864  plane waves:    1017
 k-point ** :   0.3977 0.3977 0.3977  plane waves:    1017
 k-point ** :   0.4091 0.4091 0.4091  plane waves:    1023
 k-point ** :   0.4205 0.4205 0.4205  plane waves:    1023
 k-point ** :   0.4318 0.4318 0.4318  plane waves:    1023
 k-point ** :   0.4432 0.4432 0.4432  plane waves:    1026
 k-point ** :   0.4545 0.4545 0.4545  plane waves:    1026
 k-point ** :   0.4659 0.4659 0.4659  plane waves:    1020
 k-point ** :   0.4773 0.4773 0.4773  plane waves:    1020
 k-point ** :   0.4886 0.4886 0.4886  plane waves:    1008
 k-point ** :   0.5000 0.5000 0.5000  plane waves:    1008

 maximum and minimum number of plane-waves per node :       183      148

 maximum number of plane-waves:      1034
 maximum index in each direction:
   IXMAX=    7   IYMAX=    7   IZMAX=    7
   IXMIN=   -7   IYMIN=   -7   IZMIN=   -7

 WARNING: aliasing errors must be expected set NGX to  30 to avoid them
 WARNING: aliasing errors must be expected set NGY to  30 to avoid them
 WARNING: aliasing errors must be expected set NGZ to  30 to avoid them
 aliasing errors are usually negligible using standard VASP settings
 and one can safely disregard these warnings

 parallel 3D FFT for wavefunctions:
    minimum data exchange during FFTs selected (reduces bandwidth)
 parallel 3D FFT for charge:
    minimum data exchange during FFTs selected (reduces bandwidth)

 initial charge density was supplied:
 number of electron       8.0000001 magnetization
 keeping initial charge density in first step

 Maximum index for augmentation-charges         1360 (set IRDMAX)

 First call to EWALD:  gamma=   0.518
 Maximum number of real-space cells 3x 3x 3
 Maximum number of reciprocal cells 3x 3x 3

 FEWALD executed in parallel

----------------------------------------- Iteration    1(   1)  ---------------------------------------

 eigenvalue-minimisations  :  2640
 total energy-change (2. order) : 0.6707197E+01  (-0.3176598E+03)
 number of electron       8.0000001 magnetization
 augmentation part        8.0000001 magnetization

 Free energy of the ion-electron system (eV)
  alpha Z        PSCENC =         3.36228930
  Ewald energy   TEWEN  =      -228.52143995
  -Hartree energ DENC   =       -14.67338014
  -exchange      EXHF   =         0.00000000
  -V(xc)+E(xc)   XCENC  =       -16.84215720
  PAW double counting   =       872.12719759     -837.76694821
  entropy T*S    EENTRO =        -0.00017624
  eigenvalues    EBANDS =        23.87092050
  atomic energy  EATOM  =       205.15089164
  Solvation  Ediel_sol  =         0.00000000
  free energy    TOTEN  =         6.70719729 eV

  energy without entropy =        6.70737353  energy(sigma->0) =        6.70728541

[...]

 eigenvalue-minimisations  :  4144
 total energy-change (2. order) :-0.1766658E+02  (-0.1751767E+02)
 number of electron       8.0000001 magnetization
 augmentation part        8.0000001 magnetization

[...]

----------------------------------------- Iteration    1(   6)  ---------------------------------------

 eigenvalue-minimisations  :  4408
 total energy-change (2. order) :-0.5885113E-08  (-0.5885079E-08)
 number of electron       8.0000001 magnetization
 augmentation part        8.0000001 magnetization

 Free energy of the ion-electron system (eV)
  alpha Z        PSCENC =         3.36228930
  Ewald energy   TEWEN  =      -228.52143995
  -Hartree energ DENC   =       -14.67338014
  -exchange      EXHF   =         0.00000000
  -V(xc)+E(xc)   XCENC  =       -16.84215720
  PAW double counting   =       872.12719759     -837.76694821
  entropy T*S    EENTRO =        -0.00000000
  eigenvalues    EBANDS =         5.98611055
  atomic energy  EATOM  =       205.15089164
  Solvation  Ediel_sol  =         0.00000000
  free energy    TOTEN  =       -11.17743642 eV

  energy without entropy =      -11.17743642  energy(sigma->0) =      -11.17743642

 the core state eigenenergies are
   1-  1s  -1773.9257  2s   -127.9430  2p    -83.9662
   2-  1s  -1773.9257  2s   -127.9430  2p    -83.9662

 E-fermi :   5.8957     XC(G=0):  -9.5490     alpha+bet :-11.9779

 k-point     1 :       0.0000    0.0000    0.0000
  band No.  band energies     occupation
      1      -6.1942      2.00000
      2       5.7972      2.00000
      3       5.7972      2.00000
      4       5.7972      2.00000
      5       8.3104      0.00000
      6       8.3104      0.00000
      7       8.3104      0.00000
      8       9.1195      0.00000

[...]

 k-point   165 :       0.5000    0.5000    0.5000
  band No.  band energies     occupation
      1      -3.8440      2.00000
      2      -1.2198      2.00000
      3       4.5929      2.00000
      4       4.5929      2.00000
      5       7.2599      0.00000
      6       9.0654      0.00000
      7       9.0654      0.00000
      8      13.3052      0.00000

 soft charge-density along one line, spin component           1
         0         1         2         3         4         5         6         7         8         9
 total charge-density along one line

------------------------ aborting loop because EDIFF is reached ----------------------------------------

 total charge

# of ion     s       p       d       tot
  1        0.746   0.949   0.000   1.695
  2        0.746   0.949   0.000   1.695
tot        1.491   1.898   0.000   3.389

  FORCE on cell =-STRESS in cart. coord.  units (eV):
  Direction    XX          YY          ZZ          XY          YZ          ZX
  Alpha Z     3.36229     3.36229     3.36229
  Ewald     -76.17385   -76.17385   -76.17385     0.00000     0.00000    -0.00000
  Hartree     4.94827     4.94827     4.94827     0.00000    -0.00000    -0.00000
  E(xc)     -25.56522   -25.56522   -25.56522     0.00000    -0.00000    -0.00000
  Local     -29.21833   -29.21833   -29.21833     0.00001    -0.00001    -0.00001
  n-local    74.01407    79.73733    78.97102    -1.15441    -2.58914    -0.75229
  augment   -11.46604   -11.46604   -11.46604    -0.00001     0.00001     0.00001
  Kinetic    55.17019    57.00672    58.68110    -0.95252    -3.74253    -0.96742
  Fock        0.00000     0.00000     0.00000     0.00000     0.00000     0.00000
  Total       0.41394     0.41394     0.41394     0.00000     0.00000     0.00000
  in kB      16.56012    16.56012    16.56012     0.00000     0.00000     0.00000

 VOLUME and BASIS-vectors are now :
  energy-cutoff  :      500.00
  volume of cell :       40.05
      direct lattice vectors                 reciprocal lattice vectors
     2.715500000  2.715500000  0.000000000     0.184128153  0.184128153  0.184128153
     2.715500000  0.000000000 -2.715500000     0.184128153 -0.184128153 -0.184128153
     0.000000000  2.715500000 -2.715500000    -0.184128153  0.184128153 -0.184128153

  length of vectors
     3.840296929  3.840296929  3.840296929     0.318919316  0.318919316  0.318919316

 FORCES acting on ions
    electron-ion (+dipol)            ewald-force                    non-local-force                 convergence-correction
   -.164E-07 -.131E-07 0.131E-07   -.923E-14 -.515E-14 0.930E-14   -.625E-16 -.625E-16 0.118E-15   0.103E-08 0.103E-08 -.103E-08
   0.164E-07 0.131E-07 -.131E-07   0.907E-14 0.563E-14 -.939E-14   0.694E-16 0.486E-16 -.111E-15   -.103E-08 -.103E-08 0.103E-08
   -.489E-14 0.515E-13 -.110E-12   -.164E-15 0.474E-15 -.970E-16   0.694E-17 -.139E-16 0.694E-17   0.188E-14 -.494E-15 0.272E-14

 POSITION                                       TOTAL-FORCE (eV/Angst)
      0.00000      0.00000      0.00000         0.000000     -0.000000     -0.000000
      1.35775      1.35775     -1.35775        -0.000000      0.000000      0.000000
    total drift:                               -0.000000      0.000000     -0.000000

  FREE ENERGIE OF THE ION-ELECTRON SYSTEM (eV)
  free  energy   TOTEN  =       -11.17743642 eV

  energy  without entropy=      -11.17743642  energy(sigma->0) =      -11.17743642

 writing wavefunctions

 total charge

# of ion     s       p       d       tot
  1        0.746   0.949   0.000   1.695
  2        0.746   0.949   0.000   1.695
tot        1.491   1.898   0.000   3.389