 vasp.5.3.5 31Mar14 (build Mar 26 2015 15:03:36) complex

 executed on             LinuxIFC date 2015.10.01  10:45:21

 INCAR:
 POTCAR:    PAW_PBE Cd 06Sep2000
 POTCAR:    PAW_PBE Te 08Apr2002

 POTCAR:    PAW_PBE Cd 06Sep2000
   VRHFIN =Cd : s2 d10

   TITEL  = PAW_PBE Cd 06Sep2000
   POMASS =  112.411; ZVAL   =   12.000    mass and valenz
   ENMAX  =  274.336; ENMIN  =  205.752 eV

 POTCAR:    PAW_PBE Te 08Apr2002
   VRHFIN =Te: s2p4

   TITEL  = PAW_PBE Te 08Apr2002
   POMASS =  127.600; ZVAL   =    6.000    mass and valenz
   ENMAX  =  174.982; ENMIN  =  131.236 eV

 Optimization of the real space projectors (new method)

 maximal supplied QI-value         = 16.25
 optimisation between [QCUT,QGAM] = [ 11.38, 22.75] = [ 36.24,144.96] Ry
 Optimized for a Real-space Cutoff    1.39 Angstroem

   l    n(q)    QCUT    max X(q) W(low)/X(q) W(high)/X(q)  e(spline)
   2      8    11.376    73.106    0.28E-03    0.37E-04    0.13E-06
   2      8    11.376    71.731    0.28E-03    0.38E-04    0.13E-06
   0      9    11.376   146.509    0.80E-04    0.12E-03    0.20E-06
   0      9    11.376    95.017    0.77E-04    0.12E-03    0.20E-06
   1      9    11.376    36.165    0.46E-03    0.14E-03    0.16E-06
   1      9    11.376    31.530    0.42E-03    0.13E-03    0.14E-06
 Optimization of the real space projectors (new method)

 maximal supplied QI-value         = 16.25
 optimisation between [QCUT,QGAM] = [ 11.38, 22.75] = [ 36.24,144.96] Ry
 Optimized for a Real-space Cutoff    1.27 Angstroem

   l    n(q)    QCUT    max X(q) W(low)/X(q) W(high)/X(q)  e(spline)
   0      9    11.376   224.858    0.17E-03    0.31E-03    0.12E-06
   0      9    11.376   205.313    0.17E-03    0.31E-03    0.12E-06
   1      8    11.376   119.695    0.44E-03    0.94E-04    0.17E-06
   1      8    11.376    84.282    0.43E-03    0.94E-04    0.17E-06
   2      8    11.376     5.599    0.12E-03    0.20E-03    0.39E-07
  PAW_PBE Cd 06Sep2000                  :
  PAW_PBE Te 08Apr2002                  :

 POSCAR: Cd1 Te1
  positions in direct lattice
 exchange correlation table for  LEXCH =        8
   RHO(1)=    0.500       N(1)  =     2000
   RHO(2)=  100.500       N(2)  =     4000

 ion  position               nearest neighbor table
   1  0.000  0.000  0.000-   5 2.81   6 2.81   7 2.81   8 2.81
   2  0.000  0.500  0.500-   5 2.81   6 2.81   7 2.81   8 2.81
   3  0.500  0.000  0.500-   5 2.81   6 2.81   7 2.81   8 2.81
   4  0.500  0.500  0.000-   5 2.81   6 2.81   7 2.81   8 2.81
   5  0.250  0.250  0.250-   1 2.81   2 2.81   3 2.81   4 2.81
   6  0.750  0.750  0.250-   1 2.81   2 2.81   3 2.81   4 2.81
   7  0.750  0.250  0.750-   1 2.81   2 2.81   3 2.81   4 2.81
   8  0.250  0.750  0.750-   1 2.81   2 2.81   3 2.81   4 2.81

  LATTYP: Found a simple cubic cell.
 ALAT       =     6.4826998711

  Lattice vectors:

 A1 = (   6.4826998711,   0.0000000000,   0.0000000000)
 A2 = (   0.0000000000,   6.4826998711,   0.0000000000)
 A3 = (   0.0000000000,   0.0000000000,   6.4826998711)

Analysis of symmetry for initial positions (statically):
 Subroutine PRICEL returns following result:

  LATTYP: Found a face centered cubic cell.
 ALAT       =     6.4826998711

[...]

   4 primitive cells build up your supercell.

 Routine SETGRP: Setting up the symmetry group for a
 simple cubic supercell.

 Subroutine GETGRP returns: Found 24 space group operations
 (whereof 24 operations were pure point group operations)
 out of a pool of 48 trial point group operations.

The static configuration has the point symmetry T_d .

Analysis of symmetry for dynamics (positions and initial velocities):
 Subroutine PRICEL returns following result:

  LATTYP: Found a face centered cubic cell.
 ALAT       =     6.4826998711

  Lattice vectors:

 A1 = (   3.2413499356,   3.2413499356,  -0.0000000000)
 A2 = (   3.2413499356,   0.0000000000,  -3.2413499356)
 A3 = (   0.0000000000,   3.2413499356,  -3.2413499356)

   4 primitive cells build up your supercell.

 Routine SETGRP: Setting up the symmetry group for a
 simple cubic supercell.

 Subroutine GETGRP returns: Found 24 space group operations
 (whereof 24 operations were pure point group operations)
 out of a pool of 48 trial point group operations.

The dynamic configuration has the point symmetry T_d .

 KPOINTS: Automatic mesh

Automatic generation of k-mesh.
Space group operators:
 irot       det(A)        alpha          n_x          n_y          n_z        tau_x        tau_y        tau_z
    1     1.000000     0.000000     1.000000     0.000000     0.000000     0.000000     0.000000     0.000000
    2     1.000000   120.000000    -0.577350    -0.577350    -0.577350     0.000000     0.000000     0.000000
    3     1.000000   120.000000     0.577350     0.577350     0.577350     0.000000     0.000000     0.000000
    4    -1.000000    90.000000     0.000000     0.000000    -1.000000     0.000000     0.000000     0.000000
    5    -1.000000   180.000000     0.000000     0.707107     0.707107     0.000000     0.000000     0.000000
    6    -1.000000    90.000000     0.000000     1.000000     0.000000     0.000000     0.000000     0.000000
    7     1.000000   180.000000     0.000000     0.000000     1.000000     0.000000     0.000000     0.000000
    8     1.000000   120.000000    -0.577350     0.577350     0.577350     0.000000     0.000000     0.000000
    9     1.000000   120.000000    -0.577350     0.577350    -0.577350     0.000000     0.000000     0.000000
   10    -1.000000    90.000000     0.000000     0.000000     1.000000     0.000000     0.000000     0.000000
   11    -1.000000    90.000000    -1.000000     0.000000     0.000000     0.000000     0.000000     0.000000
   12    -1.000000   180.000000     0.707107     0.000000     0.707107     0.000000     0.000000     0.000000
   13     1.000000   120.000000     0.577350    -0.577350     0.577350     0.000000     0.000000     0.000000
   14     1.000000   120.000000    -0.577350    -0.577350     0.577350     0.000000     0.000000     0.000000
   15     1.000000   180.000000     1.000000     0.000000     0.000000     0.000000     0.000000     0.000000
   16    -1.000000    90.000000     0.000000    -1.000000     0.000000     0.000000     0.000000     0.000000
   17    -1.000000   180.000000     0.707107     0.707107     0.000000     0.000000     0.000000     0.000000
   18    -1.000000    90.000000     1.000000     0.000000     0.000000     0.000000     0.000000     0.000000
   19     1.000000   120.000000     0.577350    -0.577350    -0.577350     0.000000     0.000000     0.000000
   20     1.000000   180.000000     0.000000     1.000000     0.000000     0.000000     0.000000     0.000000
   21     1.000000   120.000000     0.577350     0.577350    -0.577350     0.000000     0.000000     0.000000
   22    -1.000000   180.000000     0.000000    -0.707107     0.707107     0.000000     0.000000     0.000000
   23    -1.000000   180.000000     0.707107    -0.707107     0.000000     0.000000     0.000000     0.000000
   24    -1.000000   180.000000     0.707107     0.000000    -0.707107     0.000000     0.000000     0.000000

 Subroutine IBZKPT returns following result:

 Found      4 irreducible k-points:

 Following reciprocal coordinates:
            Coordinates               Weight
  0.000000  0.000000  0.000000      1.000000
  0.333333  0.000000  0.000000      6.000000
  0.333333  0.333333  0.000000     12.000000
  0.333333  0.333333  0.333333      8.000000

 Following cartesian coordinates:
            Coordinates               Weight
  0.000000  0.000000  0.000000      1.000000
  0.051419  0.000000  0.000000      6.000000
  0.051419  0.051419  0.000000     12.000000
  0.051419  0.051419  0.051419      8.000000

 I would recommend the setting:
   dimension x,y,z NGX =    35 NGY =   35 NGZ =   35
 SYSTEM =  Name
 POSCAR =  Cd1 Te1

 Startparameter for this run:
   NWRITE =      2    write-flag & timer
   PREC   = normal    normal or accurate (medium, high low for compatibility)
   ISTART =      0    job   : 0-new  1-cont  2-samecut
   ICHARG =      2    charge: 1-file 2-atom 10-const
   ISPIN  =      1    spin polarized calculation?
   LNONCOLLINEAR =      F non collinear calculations
   LSORBIT =      F    spin-orbit coupling
   INIWAV =      1    electr: 0-lowe 1-rand  2-diag
   LASPH  =      F    aspherical Exc in radial PAW
   METAGGA=      F    non-selfconsistent MetaGGA calc.

 Electronic Relaxation 1
   ENCUT  =  500.0 eV  36.75 Ry    6.06 a.u.  11.82 11.82 11.82*2*pi/ulx,y,z
   ENINI  =  500.0     initial cutoff
   ENAUG  =  456.1 eV  augmentation charge cutoff
   NELM   =     60;   NELMIN=  2; NELMDL=  0     # of ELM steps
   EDIFF  = 0.1E-05   stopping-criterion for ELM
   LREAL  =      T    real-space projection
   NLSPLINE    = F    spline interpolate recip. space projectors
   LCOMPAT=      F    compatible to vasp.4.4
   GGA_COMPAT  = T    GGA compatible to vasp.4.4-vasp.4.6
   LMAXPAW     = -100 max onsite density
   LMAXMIX     =    2 max onsite mixed and CHGCAR
   VOSKOWN=      0    Vosko Wilk Nusair interpolation
   ROPT   =   -0.00050  -0.00050
 Ionic relaxation
   EDIFFG = -.5E-02   stopping-criterion for IOM
   NSW    =    100    number of steps for IOM
   NBLOCK =      1;   KBLOCK =    100    inner block; outer block
   IBRION =      2    ionic relax: 0-MD 1-quasi-New 2-CG
   NFREE  =      1    steps in history (QN), initial steepest desc. (CG)
   ISIF   =      3    stress and relaxation
   IWAVPR =     11    prediction:  0-non 1-charg 2-wave 3-comb
   ISYM   =      2    0-nonsym 1-usesym 2-fastsym
   LCORR  =      T    Harris-Foulkes like correction to forces

   POTIM  = 0.5000    time-step for ionic-motion
   TEIN   =    0.0    initial temperature
   TEBEG  =    0.0;   TEEND  =   0.0 temperature during run
   SMASS  =  -3.00    Nose mass-parameter (am)
   estimated Nose-frequenzy (Omega)   =  0.10E-29 period in steps =****** mass=  -0.960E-27a.u.
   SCALEE = 1.0000    scale energy and forces
   NPACO  =    256;   APACO  = 16.0  distance and # of slots for P.C.
   PSTRESS=    0.0 pullay stress

  Mass of Ions in am
   POMASS = 112.41127.60
  Ionic Valenz
   ZVAL   =  12.00  6.00
  Atomic Wigner-Seitz radii
  virtual crystal weights
   VCA    =   1.00  1.00
   NELECT =      72.0000    total number of electrons
   NUPDOWN=      -1.0000    fix difference up-down

 DOS related values:
   EMIN   =  10.00;   EMAX   =-10.00  energy-range for DOS
   EFERMI =   0.00
   ISMEAR =     0;   SIGMA  =   0.10  broadening in eV -4-tet -1-fermi 0-gaus

 Electronic relaxation 2 (details)
   IALGO  =     38    algorithm
   LDIAG  =      T    sub-space diagonalisation (order eigenvalues)
   LSUBROT=      F    optimize rotation matrix (better conditioning)
   TURBO    =      0    0=normal 1=particle mesh
   IRESTART =      0    0=no restart 2=restart with 2 vectors
   NREBOOT  =      0    no. of reboots
   NMIN     =      0    reboot dimension
   EREF     =   0.00    reference energy to select bands
   IMIX   =      4    mixing-type and parameters
     AMIX     =   0.40;   BMIX     =  1.00
     AMIX_MAG =   1.60;   BMIX_MAG =  1.00
     AMIN     =   0.01
     WC   =   100.;   INIMIX=   1;  MIXPRE=   1;  MAXMIX= -45

[...]
       3d   -387.3711  4s    -99.8141  4p    -60.8715
   5-  1s -31612.9196  2s  -4840.5020  2p  -4343.8974  3s   -956.7208  3p   -795.3786
       3d   -551.6287  4s   -156.2300  4p   -106.2690  4d    -33.5915
   6-  1s -31612.9196  2s  -4840.5020  2p  -4343.8974  3s   -956.7208  3p   -795.3786
       3d   -551.6287  4s   -156.2300  4p   -106.2690  4d    -33.5915
   7-  1s -31612.9196  2s  -4840.5020  2p  -4343.8974  3s   -956.7208  3p   -795.3786
       3d   -551.6287  4s   -156.2300  4p   -106.2690  4d    -33.5915
   8-  1s -31612.9196  2s  -4840.5020  2p  -4343.8974  3s   -956.7208  3p   -795.3786
       3d   -551.6287  4s   -156.2300  4p   -106.2690  4d    -33.5915

 E-fermi :   2.7341     XC(G=0):  -8.5789     alpha+bet : -7.4227

 k-point     1 :       0.0000    0.0000    0.0000
  band No.  band energies     occupation
      1      -8.8246      2.00000
      2      -8.3094      2.00000
      3      -8.3094      2.00000
      4      -8.3094      2.00000
      5      -5.9453      2.00000
      6      -5.9453      2.00000
      7      -5.9453      2.00000
      8      -5.7902      2.00000
      9      -5.7902      2.00000
     10      -5.7902      2.00000
     11      -5.7822      2.00000
     12      -5.7822      2.00000
     13      -5.7822      2.00000
     14      -5.7822      2.00000
     15      -5.7822      2.00000
     16      -5.7822      2.00000
     17      -5.6861      2.00000
     18      -5.6861      2.00000
     19      -5.6555      2.00000
     20      -5.6555      2.00000
     21      -5.6555      2.00000
     22      -5.1937      2.00000
     23      -5.1937      2.00000
     24      -5.1937      2.00000
     25      -1.9614      2.00000
     26      -1.9614      2.00000
     27      -1.9614      2.00000
     28       0.4820      2.00000
     29       0.4820      2.00000
     30       0.4820      2.00000
     31       0.4820      2.00000
     32       0.4820      2.00000
     33       0.4820      2.00000
     34       2.3443      2.00000
     35       2.3443      2.00000
     36       2.3443      2.00000
     37       3.1099      0.00000
     38       4.9503      0.00000
     39       4.9503      0.00000
     40       4.9503      0.00000
     41       5.0119      0.00000
     42       5.0119      0.00000
     43       5.0119      0.00000
     44       6.9435      0.00000
     45       6.9435      0.00000
     46       6.9435      0.00000
     47       9.8058      0.00000
     48      11.1824      0.00000

[...]

 soft charge-density along one line, spin component           1
         0         1         2         3         4         5         6         7         8         9
 total charge-density along one line

------------------------ aborting loop because EDIFF is reached ----------------------------------------

 total charge

# of ion     s       p       d       tot
  1        0.469   0.318   9.531  10.318
  2        0.469   0.318   9.531  10.318
  3        0.469   0.318   9.531  10.318
  4        0.469   0.318   9.531  10.318
  5        1.349   2.063   0.021   3.434
  6        1.349   2.063   0.021   3.434
  7        1.349   2.063   0.021   3.434
  8        1.349   2.063   0.021   3.434
tot        7.273   9.525  38.209  55.007

  FORCE on cell =-STRESS in cart. coord.  units (eV):
  Direction    XX          YY          ZZ          XY          YZ          ZX
  Alpha Z   200.68889   200.68889   200.68889
  Ewald   -1393.11065 -1393.11065 -1393.11065     0.00000     0.00000     0.00000
  Hartree   671.55522   671.55522   671.55522    -0.00000    -0.00000    -0.00000
  E(xc)    -349.69180  -349.69180  -349.69180     0.00000     0.00000    -0.00000
  Local     -70.88845   -70.88845   -70.88845     0.00000     0.00000    -0.00000
  n-local   106.98645   110.43111   107.42370    -4.05888    -1.63970    -1.63970
  augment    25.58924    25.58924    25.58924     0.00000     0.00000     0.00000
  Kinetic   808.55912   813.15919   812.77967    -3.87247    -1.72402    -1.72402
  Fock        0.00000     0.00000     0.00000     0.00000     0.00000     0.00000
  Total       3.92220     3.92220     3.92220    -0.00000    -0.00000     0.00000
  in kB      23.06599    23.06599    23.06599    -0.00000    -0.00000     0.00000

 VOLUME and BASIS-vectors are now :
  energy-cutoff  :      500.00
  volume of cell :      272.44
      direct lattice vectors                 reciprocal lattice vectors
     6.482699871  0.000000000  0.000000000     0.154256717  0.000000000  0.000000000
     0.000000000  6.482699871  0.000000000     0.000000000  0.154256717  0.000000000
     0.000000000  0.000000000  6.482699871     0.000000000  0.000000000  0.154256717

[...]

 FORCES acting on ions
    electron-ion (+dipol)            ewald-force                    non-local-force                 convergence-correction
   -.110E-14 0.823E-13 -.106E-12   0.711E-14 0.000E+00 0.711E-14   -.191E-16 -.247E-16 -.867E-18   0.712E-13 0.736E-13 -.926E-13
   0.208E-13 0.687E-12 0.511E-12   0.711E-14 0.000E+00 -.711E-14   -.226E-16 0.737E-17 -.434E-18   0.872E-13 0.683E-13 -.870E-13
   0.598E-12 0.776E-13 0.650E-11   0.213E-13 0.000E+00 -.711E-14   -.156E-16 0.997E-17 -.737E-17   0.838E-13 0.724E-13 -.116E-12
   0.549E-12 0.359E-11 0.205E-11   0.213E-13 0.711E-14 -.711E-14   -.399E-16 0.434E-18 0.260E-17   0.817E-13 0.543E-13 -.850E-13
   0.368E-12 0.235E-12 -.933E-13   -.227E-13 -.832E-15 0.308E-15   0.520E-17 -.278E-16 -.243E-16   -.687E-14 -.108E-13 -.676E-14
   0.471E-12 0.165E-12 -.155E-12   -.203E-13 0.660E-15 0.302E-15   0.520E-17 -.330E-16 -.330E-16   -.133E-13 -.603E-14 -.956E-14
   0.358E-12 0.560E-12 -.725E-12   -.213E-13 -.511E-15 -.168E-15   -.173E-16 -.442E-16 -.243E-16   -.998E-14 -.102E-13 0.335E-13
   0.400E-12 0.249E-13 -.136E-12   -.210E-13 0.981E-15 -.174E-15   -.173E-16 -.408E-16 -.226E-16   -.122E-13 -.821E-14 0.334E-13
   0.277E-11 0.542E-11 0.784E-11   -.285E-13 0.740E-14 -.139E-13   -.121E-15 -.153E-15 -.110E-15   0.282E-12 0.233E-12 -.330E-12

 POSITION                                       TOTAL-FORCE (eV/Angst)
      0.00000      0.00000      0.00000        -0.000000     -0.000000      0.000000
      0.00000      3.24135      3.24135        -0.000000      0.000000     -0.000000
      3.24135      0.00000      3.24135        -0.000000      0.000000     -0.000000
      3.24135      3.24135      0.00000         0.000000     -0.000000     -0.000000
      1.62067      1.62067      1.62067         0.000000      0.000000      0.000000
      4.86202      4.86202      1.62067         0.000000      0.000000      0.000000
      4.86202      1.62067      4.86202         0.000000      0.000000      0.000000
      1.62067      4.86202      4.86202         0.000000     -0.000000      0.000000
    total drift:                                0.000000      0.000000      0.000000

  FREE ENERGIE OF THE ION-ELECTRON SYSTEM (eV)
  free  energy   TOTEN  =       -19.07929345 eV

  energy  without entropy=      -19.07929345  energy(sigma->0) =      -19.07929345

 FEWALD executed in parallel

[...]

 eigenvalue-minimisations  :   400
 total energy-change (2. order) : 0.4669476E-04  (-0.7006615E-04)
 number of electron      71.9999905 magnetization
 augmentation part       18.3550267 magnetization

[...]

 Broyden mixing:
  rms(total) = 0.32644E-03    rms(broyden)= 0.32644E-03
  rms(prec ) = 0.42809E-03
  weight for this iteration     100.00

 eigenvalues of (default mixing * dielectric matrix)
  average eigenvalue GAMMA=   1.6076
  3.2468  2.5189  1.6783  1.6783  1.3505  1.2585  0.9499  0.8939  0.8939

[...]

----------------------------------------- Iteration    2(  11)  ---------------------------------------

 eigenvalue-minimisations  :   288
 total energy-change (2. order) :-0.1040207E-06  (-0.9642079E-07)
 number of electron      71.9999905 magnetization
 augmentation part       18.3525509 magnetization

 Free energy of the ion-electron system (eV)
  alpha Z        PSCENC =       187.09670264
  Ewald energy   TEWEN  =     -4082.75972136
  -Hartree energ DENC   =     -2068.68460657
  -exchange      EXHF   =         0.00000000
  -V(xc)+E(xc)   XCENC  =       -91.23079763
  PAW double counting   =      6740.94826779    -6449.15445330
  entropy T*S    EENTRO =        -0.00000326
  eigenvalues    EBANDS =      -321.21629760
  atomic energy  EATOM  =      6065.78646317
  free energy    TOTEN  =       -19.21444612 eV

  energy without entropy =      -19.21444285  energy(sigma->0) =      -19.21444449

 the core state eigenenergies are
   1-  1s -26514.0663  2s  -3931.2286  2p  -3526.4842  3s   -728.0974  3p   -595.3867
       3d   -387.8375  4s   -100.2735  4p    -61.3306
   2-  1s -26514.0663  2s  -3931.2286  2p  -3526.4842  3s   -728.0974  3p   -595.3867
       3d   -387.8375  4s   -100.2735  4p    -61.3306
   3-  1s -26514.0663  2s  -3931.2286  2p  -3526.4842  3s   -728.0974  3p   -595.3867
       3d   -387.8375  4s   -100.2735  4p    -61.3306
   4-  1s -26514.0663  2s  -3931.2286  2p  -3526.4842  3s   -728.0974  3p   -595.3867
       3d   -387.8375  4s   -100.2735  4p    -61.3306
   5-  1s -31613.4774  2s  -4841.0489  2p  -4344.4460  3s   -957.2496  3p   -795.9076
       3d   -552.1594  4s   -156.7278  4p   -106.7632  4d    -34.0743
   6-  1s -31613.4774  2s  -4841.0489  2p  -4344.4460  3s   -957.2496  3p   -795.9076
       3d   -552.1594  4s   -156.7278  4p   -106.7632  4d    -34.0743
   7-  1s -31613.4774  2s  -4841.0489  2p  -4344.4460  3s   -957.2496  3p   -795.9076
       3d   -552.1594  4s   -156.7278  4p   -106.7632  4d    -34.0743
   8-  1s -31613.4774  2s  -4841.0489  2p  -4344.4460  3s   -957.2496  3p   -795.9076
       3d   -552.1594  4s   -156.7278  4p   -106.7632  4d    -34.0743

 E-fermi :   2.0219     XC(G=0):  -8.2718     alpha+bet : -6.9199

[...]

 k-point     4 :       0.3333    0.3333    0.3333
  band No.  band energies     occupation
      1      -8.8070      2.00000
      2      -8.7005      2.00000
      3      -8.7005      2.00000
      4      -8.7005      2.00000
      5      -6.2987      2.00000
      6      -6.2987      2.00000
      7      -6.2765      2.00000
      8      -6.2765      2.00000
      9      -6.2765      2.00000
     10      -6.2676      2.00000
     11      -6.2676      2.00000
     12      -6.2676      2.00000
     13      -6.1404      2.00000
     14      -6.1404      2.00000
     15      -6.1404      2.00000
     16      -6.1263      2.00000
     17      -6.1263      2.00000
     18      -6.1189      2.00000
     19      -6.1189      2.00000
     20      -6.1189      2.00000
     21      -6.0247      2.00000
     22      -5.8064      2.00000
     23      -5.8064      2.00000
     24      -5.8064      2.00000
     25      -2.1309      2.00000
     26      -2.1309      2.00000
     27      -2.1309      2.00000
     28      -1.5754      2.00000
     29       0.2715      2.00000
     30       0.2715      2.00000
     31       0.2715      2.00000
     32       0.7788      2.00000
     33       0.7788      2.00000
     34       0.7788      2.00000
     35       1.2052      2.00000
     36       1.2052      2.00000
     37       3.5676      0.00000
     38       4.3917      0.00000
     39       4.3917      0.00000
     40       4.3917      0.00000
     41       6.4574      0.00000
     42       6.4574      0.00000
     43       6.4574      0.00000
     44       6.9604      0.00000
     45       6.9604      0.00000
     46       7.6281      0.00000
     47       7.6281      0.00000
     48       7.6281      0.00000

 soft charge-density along one line, spin component           1
         0         1         2         3         4         5         6         7         8         9
 total charge-density along one line

------------------------ aborting loop because EDIFF is reached ----------------------------------------

[...]

  FORCE on cell =-STRESS in cart. coord.  units (eV):
  Direction    XX          YY          ZZ          XY          YZ          ZX
  Alpha Z   187.09670   187.09670   187.09670
  Ewald   -1360.92193 -1360.92193 -1360.92193     0.00000     0.00000     0.00000
  Hartree   689.56271   689.56271   689.56271    -0.00000    -0.00000    -0.00000
  E(xc)    -348.58410  -348.58410  -348.58410     0.00000     0.00000    -0.00000
  Local    -104.47594  -104.47594  -104.47594     0.00000    -0.00000    -0.00000
  n-local   101.85529   105.41158   102.66900    -3.99444    -1.61488    -1.61488
  augment    25.14417    25.14417    25.14417     0.00000     0.00000     0.00000
  Kinetic   806.04381   810.47629   810.00924    -3.79174    -1.67636    -1.67636
  Fock        0.00000     0.00000     0.00000     0.00000     0.00000     0.00000
  Total      -0.02332    -0.02332    -0.02332    -0.00000     0.00000     0.00000
  in kB      -0.12784    -0.12784    -0.12784    -0.00000     0.00000     0.00000

 VOLUME and BASIS-vectors are now :
  energy-cutoff  :      500.00
  volume of cell :      292.23
      direct lattice vectors                 reciprocal lattice vectors
     6.636029639  0.000000000  0.000000000     0.150692516  0.000000000  0.000000000
    -0.000000000  6.636029639  0.000000000    -0.000000000  0.150692516  0.000000000
    -0.000000000 -0.000000000  6.636029639    -0.000000000 -0.000000000  0.150692516

  length of vectors
     6.636029639  6.636029639  6.636029639     0.150692516  0.150692516  0.150692516

 FORCES acting on ions
    electron-ion (+dipol)            ewald-force                    non-local-force                 convergence-correction
   0.246E-13 0.934E-13 -.199E-12   0.639E-13 0.355E-13 0.142E-13   0.347E-17 0.187E-16 -.217E-17   0.417E-13 -.452E-14 -.803E-13
   0.728E-13 0.656E-12 0.418E-12   0.639E-13 0.355E-13 0.142E-13   0.870E-18 0.174E-17 0.160E-16   0.599E-13 0.461E-13 -.285E-13
   0.638E-12 0.832E-13 0.634E-11   0.639E-13 0.355E-13 0.142E-13   0.870E-18 -.182E-16 0.152E-16   0.535E-13 -.176E-13 -.499E-13
   0.668E-12 0.355E-11 0.195E-11   0.639E-13 0.355E-13 0.142E-13   -.139E-16 -.217E-17 0.477E-17   0.477E-13 0.299E-13 -.968E-13
   0.782E-13 0.224E-12 -.329E-13   -.712E-13 -.354E-13 -.138E-13   0.191E-16 -.868E-17 -.382E-16   -.214E-13 0.884E-14 -.280E-13
   0.407E-13 0.164E-12 -.129E-12   -.627E-13 -.350E-13 -.138E-13   -.330E-16 0.746E-16 0.104E-16   -.147E-13 0.386E-13 -.255E-13
   0.246E-13 0.560E-12 -.618E-12   -.644E-13 -.360E-13 -.145E-13   -.521E-17 0.139E-16 0.173E-17   -.171E-13 0.132E-13 -.125E-13
   0.760E-13 0.982E-14 -.672E-13   -.721E-13 -.357E-13 -.145E-13   -.191E-16 -.208E-16 -.156E-16   -.244E-13 0.331E-13 -.157E-13
   0.162E-11 0.534E-11 0.766E-11   -.145E-13 -.856E-18 0.222E-15   -.469E-16 0.590E-16 -.781E-17   0.125E-12 0.148E-12 -.337E-12

 POSITION                                       TOTAL-FORCE (eV/Angst)
     -0.00000     -0.00000      0.00000        -0.000000      0.000000     -0.000000
     -0.00000      3.31801      3.31801         0.000000      0.000000      0.000000
      3.31801     -0.00000      3.31801         0.000000      0.000000     -0.000000
      3.31801      3.31801      0.00000        -0.000000     -0.000000      0.000000
      1.65901      1.65901      1.65901        -0.000000     -0.000000      0.000000
      4.97702      4.97702      1.65901        -0.000000     -0.000000     -0.000000
      4.97702      1.65901      4.97702         0.000000     -0.000000     -0.000000
      1.65901      4.97702      4.97702        -0.000000     -0.000000     -0.000000
    total drift:                                0.000000      0.000000      0.000000

  FREE ENERGIE OF THE ION-ELECTRON SYSTEM (eV)
  free  energy   TOTEN  =       -19.21444612 eV

  energy  without entropy=      -19.21444285  energy(sigma->0) =      -19.21444449

 d Force = 0.0000000E+00[ 0.000E+00, 0.000E+00]  d Energy = 0.1351527E+00-0.135E+00
 d Force = 0.0000000E+00[ 0.000E+00, 0.000E+00]  d Ewald  =-0.9656603E+02 0.966E+02

 Steepest descent step on ions:
 trial-energy change:   -0.135153  1 .order   -0.138325   -0.278305    0.001655
  (g-gl).g = 0.278E+00      g.g   = 0.278E+00  gl.gl    = 0.000E+00
 g(Force)  = 0.142E-56   g(Stress)= 0.278E+00 ortho     = 0.000E+00
 gamma     =   0.00000
 trial     =   1.00000
 opt step  =   0.99366  (harmonic =   0.99409) maximal distance =0.00000000
 next E    =   -19.214451   (d E  =  -0.13516)

 reached required accuracy - stopping structural energy minimisation
 writing wavefunctions

 total charge

# of ion     s       p       d       tot
  1        0.459   0.280   9.533  10.273
  2        0.459   0.280   9.533  10.273
  3        0.459   0.280   9.533  10.273
  4        0.459   0.280   9.533  10.273
  5        1.352   2.031   0.017   3.401
  6        1.352   2.031   0.017   3.401
  7        1.352   2.031   0.017   3.401
  8        1.352   2.031   0.017   3.401
tot        7.248   9.243  38.202  54.692