 vasp.5.3.5 31Mar14 (build Apr 15 2015 10:45:18) complex

 executed on             LinuxIFC date 2016.01.30  00:45:05

 INCAR:
 POTCAR:    PAW_PBE Cd 06Sep2000
 POTCAR:    PAW_PBE Te 08Apr2002

 POTCAR:    PAW_PBE Cd 06Sep2000
   VRHFIN =Cd : s2 d10

   TITEL  = PAW_PBE Cd 06Sep2000
   POMASS =  112.411; ZVAL   =   12.000    mass and valenz
   ENMAX  =  274.336; ENMIN  =  205.752 eV

 POTCAR:    PAW_PBE Te 08Apr2002
   VRHFIN =Te: s2p4

   TITEL  = PAW_PBE Te 08Apr2002
   POMASS =  127.600; ZVAL   =    6.000    mass and valenz
   ENMAX  =  174.982; ENMIN  =  131.236 eV

  PAW_PBE Cd 06Sep2000                  :
  PAW_PBE Te 08Apr2002                  :

 POSCAR: CdTe (ICSD, 295K, Rabadanov 2001)
  positions in direct lattice
  velocities in cartesian coordinates
 exchange correlation table for  LEXCH =       14
   RHO(1)=    0.500       N(1)  =     2000
   RHO(2)=  100.500       N(2)  =     4000

 ion  position               nearest neighbor table
   1  0.000  0.000  0.000-   2 2.81   2 2.81   2 2.81   2 2.81
   2  0.250  0.250  0.250-   1 2.81   1 2.81   1 2.81   1 2.81

  LATTYP: Found a face centered cubic cell.
 ALAT       =     6.4827000000

  Lattice vectors:

 A1 = (   3.2413500000,   3.2413500000,   0.0000000000)
 A2 = (   3.2413500000,   0.0000000000,  -3.2413500000)
 A3 = (   0.0000000000,   3.2413500000,  -3.2413500000)

Analysis of symmetry for initial positions (statically):
 Subroutine PRICEL returns:
 Original cell was already a primitive cell.

 Routine SETGRP: Setting up the symmetry group for a
 face centered cubic supercell.

 Subroutine GETGRP returns: Found 24 space group operations
 (whereof 24 operations were pure point group operations)
 out of a pool of 48 trial point group operations.

The static configuration has the point symmetry T_d .

Analysis of symmetry for dynamics (positions and initial velocities):
 Subroutine PRICEL returns:
 Original cell was already a primitive cell.

 Routine SETGRP: Setting up the symmetry group for a
 face centered cubic supercell.

 Subroutine GETGRP returns: Found 24 space group operations
 (whereof 24 operations were pure point group operations)
 out of a pool of 48 trial point group operations.

The dynamic configuration has the point symmetry T_d .

 KPOINTS: Automatic mesh

Automatic generation of k-mesh.
Space group operators:
 irot       det(A)        alpha          n_x          n_y          n_z        tau_x        tau_y        tau_z
    1     1.000000     0.000000     1.000000     0.000000     0.000000     0.000000     0.000000     0.000000
    2     1.000000   120.000000    -0.577350    -0.577350     0.577350     0.000000     0.000000     0.000000
    3     1.000000   120.000000     0.577350     0.577350    -0.577350     0.000000     0.000000     0.000000
    4    -1.000000    90.000000    -1.000000     0.000000     0.000000     0.000000     0.000000     0.000000
    5    -1.000000   180.000000     0.707107     0.707107     0.000000     0.000000     0.000000     0.000000
    6    -1.000000    90.000000     0.000000     1.000000     0.000000     0.000000     0.000000     0.000000
    7     1.000000   180.000000     1.000000     0.000000     0.000000     0.000000     0.000000     0.000000
    8     1.000000   120.000000     0.577350     0.577350     0.577350     0.000000     0.000000     0.000000
    9     1.000000   120.000000    -0.577350     0.577350     0.577350     0.000000     0.000000     0.000000
   10    -1.000000    90.000000     1.000000     0.000000     0.000000     0.000000     0.000000     0.000000
   11    -1.000000    90.000000     0.000000     0.000000     1.000000     0.000000     0.000000     0.000000
   12    -1.000000   180.000000     0.707107     0.000000    -0.707107     0.000000     0.000000     0.000000
   13     1.000000   120.000000     0.577350    -0.577350    -0.577350     0.000000     0.000000     0.000000
   14     1.000000   120.000000     0.577350    -0.577350     0.577350     0.000000     0.000000     0.000000
   15     1.000000   180.000000     0.000000     0.000000     1.000000     0.000000     0.000000     0.000000
   16    -1.000000    90.000000     0.000000    -1.000000     0.000000     0.000000     0.000000     0.000000
   17    -1.000000   180.000000     0.000000    -0.707107     0.707107     0.000000     0.000000     0.000000
   18    -1.000000    90.000000     0.000000     0.000000    -1.000000     0.000000     0.000000     0.000000
   19     1.000000   120.000000    -0.577350    -0.577350    -0.577350     0.000000     0.000000     0.000000
   20     1.000000   180.000000     0.000000     1.000000     0.000000     0.000000     0.000000     0.000000
   21     1.000000   120.000000    -0.577350     0.577350    -0.577350     0.000000     0.000000     0.000000
   22    -1.000000   180.000000     0.707107    -0.707107     0.000000     0.000000     0.000000     0.000000
   23    -1.000000   180.000000     0.000000     0.707107     0.707107     0.000000     0.000000     0.000000
   24    -1.000000   180.000000     0.707107     0.000000     0.707107     0.000000     0.000000     0.000000

 Subroutine IBZKPT returns following result:

 Found     16 irreducible k-points:

 Following reciprocal coordinates:
            Coordinates               Weight
  0.000000  0.000000  0.000000      1.000000
  0.166667  0.000000  0.000000      8.000000
  0.333333  0.000000  0.000000      8.000000
  0.500000  0.000000  0.000000      4.000000
  0.166667  0.166667  0.000000      6.000000
  0.333333  0.166667  0.000000     24.000000
  0.500000  0.166667  0.000000     24.000000
 -0.333333  0.166667  0.000000     24.000000
 -0.166667  0.166667  0.000000     12.000000
  0.333333  0.333333  0.000000      6.000000
  0.500000  0.333333  0.000000     24.000000
 -0.333333  0.333333  0.000000     12.000000
  0.500000  0.500000  0.000000      3.000000
  0.500000  0.333333  0.166667     24.000000
 -0.333333  0.333333  0.166667     24.000000
 -0.333333  0.500000  0.166667     12.000000

 Following cartesian coordinates:
            Coordinates               Weight
  0.000000  0.000000  0.000000      1.000000
  0.166667  0.166667  0.166667      8.000000
  0.333333  0.333333  0.333333      8.000000
  0.500000  0.500000  0.500000      4.000000
  0.333333  0.000000  0.000000      6.000000
  0.500000  0.166667  0.166667     24.000000
  0.666667  0.333333  0.333333     24.000000
 -0.166667 -0.500000 -0.500000     24.000000
  0.000000 -0.333333 -0.333333     12.000000
  0.666667  0.000000  0.000000      6.000000
  0.833333  0.166667  0.166667     24.000000
  0.000000 -0.666667 -0.666667     12.000000
  1.000000  0.000000  0.000000      3.000000
  0.666667  0.333333  0.000000     24.000000
 -0.166667 -0.500000 -0.833333     24.000000
  0.000000 -0.666667 -1.000000     12.000000

 I would recommend the setting:
   dimension x,y,z NGX =    33 NGY =   33 NGZ =   33
 SYSTEM =  Name
 POSCAR =  CdTe (ICSD, 295K, Rabadanov 2001)

 Startparameter for this run:
   NWRITE =      2    write-flag & timer
   PREC   = accura    normal or accurate (medium, high low for compatibility)
   ISTART =      0    job   : 0-new  1-cont  2-samecut
   ICHARG =      2    charge: 1-file 2-atom 10-const
   ISPIN  =      1    spin polarized calculation?
   LNONCOLLINEAR =      F non collinear calculations
   LSORBIT =      F    spin-orbit coupling
   INIWAV =      1    electr: 0-lowe 1-rand  2-diag
   LASPH  =      F    aspherical Exc in radial PAW
   METAGGA=      F    non-selfconsistent MetaGGA calc.

 Electronic Relaxation 1
   ENCUT  =  500.0 eV  36.75 Ry    6.06 a.u.   8.36  8.36  8.36*2*pi/ulx,y,z
   ENINI  =  500.0     initial cutoff
   ENAUG  =  456.1 eV  augmentation charge cutoff
   NELM   =     60;   NELMIN=  2; NELMDL=  0     # of ELM steps
   EDIFF  = 0.1E-05   stopping-criterion for ELM
   LREAL  =      F    real-space projection
   NLSPLINE    = F    spline interpolate recip. space projectors
   LCOMPAT=      F    compatible to vasp.4.4
   GGA_COMPAT  = T    GGA compatible to vasp.4.4-vasp.4.6
   LMAXPAW     = -100 max onsite density
   LMAXMIX     =    2 max onsite mixed and CHGCAR
   VOSKOWN=      0    Vosko Wilk Nusair interpolation
   ROPT   =    0.00000   0.00000
 Ionic relaxation
   EDIFFG = -.5E-02   stopping-criterion for IOM
   NSW    =    100    number of steps for IOM
   NBLOCK =      1;   KBLOCK =    100    inner block; outer block
   IBRION =      2    ionic relax: 0-MD 1-quasi-New 2-CG
   NFREE  =      1    steps in history (QN), initial steepest desc. (CG)
   ISIF   =      3    stress and relaxation
   IWAVPR =     11    prediction:  0-non 1-charg 2-wave 3-comb
   ISYM   =      2    0-nonsym 1-usesym 2-fastsym
   LCORR  =      T    Harris-Foulkes like correction to forces

   POTIM  = 0.5000    time-step for ionic-motion
   TEIN   =    0.0    initial temperature
   TEBEG  =    0.0;   TEEND  =   0.0 temperature during run
   SMASS  =  -3.00    Nose mass-parameter (am)
   estimated Nose-frequenzy (Omega)   =  0.10E-29 period in steps =****** mass=  -0.480E-27a.u.
   SCALEE = 1.0000    scale energy and forces
   NPACO  =    256;   APACO  = 16.0  distance and # of slots for P.C.
   PSTRESS=    0.0 pullay stress

  Mass of Ions in am
   POMASS = 112.41127.60
  Ionic Valenz
   ZVAL   =  12.00  6.00
  Atomic Wigner-Seitz radii
  virtual crystal weights
   VCA    =   1.00  1.00
   NELECT =      18.0000    total number of electrons
   NUPDOWN=      -1.0000    fix difference up-down

 DOS related values:
   EMIN   =  10.00;   EMAX   =-10.00  energy-range for DOS
   EFERMI =   0.00
   ISMEAR =     0;   SIGMA  =   0.01  broadening in eV -4-tet -1-fermi 0-gaus

 Electronic relaxation 2 (details)
   IALGO  =     38    algorithm
   LDIAG  =      T    sub-space diagonalisation (order eigenvalues)
   LSUBROT=      F    optimize rotation matrix (better conditioning)
   TURBO    =      0    0=normal 1=particle mesh
   IRESTART =      0    0=no restart 2=restart with 2 vectors
   NREBOOT  =      0    no. of reboots
   NMIN     =      0    reboot dimension
   EREF     =   0.00    reference energy to select bands
   IMIX   =      4    mixing-type and parameters
     AMIX     =   0.40;   BMIX     =  1.00
     AMIX_MAG =   1.60;   BMIX_MAG =  1.00
     AMIN     =   0.01
     WC   =   100.;   INIMIX=   1;  MIXPRE=   1;  MAXMIX= -45

 Intra band minimization:
   WEIMIN = 0.0010     energy-eigenvalue tresh-hold
   EBREAK =  0.39E-08  absolut break condition
   DEPER  =   0.30     relativ break condition

   TIME   =   0.40     timestep for ELM

  volume/ion in A,a.u.               =      34.05       229.81
  Fermi-wavevector in a.u.,A,eV,Ry     =   1.050581  1.985311 15.017042  1.103721
  Thomas-Fermi vector in A             =   2.185590

 Write flags
   LWAVE  =      T    write WAVECAR
   LCHARG =      T    write CHGCAR
   LVTOT  =      F    write LOCPOT, total local potential
   LVHAR  =      F    write LOCPOT, Hartree potential only
   LELF   =      F    write electronic localiz. function (ELF)
   LORBIT =     10    0 simple, 1 ext, 2 COOP (PROOUT)

 Dipole corrections
   LMONO  =      F    monopole corrections only (constant potential shift)
   LDIPOL =      F    correct potential (dipole corrections)
[...]
 k-point  5 :   0.1667 0.1667 0.0000  plane waves:    1736
 k-point  6 :   0.3333 0.1667 0.0000  plane waves:    1729
 k-point  7 :   0.5000 0.1667 0.0000  plane waves:    1739
 k-point  8 :  -0.3333 0.1667 0.0000  plane waves:    1732
 k-point  9 :  -0.1667 0.1667 0.0000  plane waves:    1735
 k-point 10 :   0.3333 0.3333 0.0000  plane waves:    1728
 k-point 11 :   0.5000 0.3333 0.0000  plane waves:    1723
 k-point 12 :  -0.3333 0.3333 0.0000  plane waves:    1726
 k-point 13 :   0.5000 0.5000 0.0000  plane waves:    1724
 k-point 14 :   0.5000 0.3333 0.1667  plane waves:    1724
 k-point 15 :  -0.3333 0.3333 0.1667  plane waves:    1726
 k-point 16 :  -0.3333 0.5000 0.1667  plane waves:    1722

 maximum and minimum number of plane-waves per node :      1759     1718

 maximum number of plane-waves:      1759
 maximum index in each direction:
   IXMAX=    8   IYMAX=    8   IZMAX=    8
   IXMIN=   -8   IYMIN=   -8   IZMIN=   -8

 NGX is ok and might be reduce to  34
 NGY is ok and might be reduce to  34
 NGZ is ok and might be reduce to  34

 serial   3D FFT for wavefunctions
 parallel 3D FFT for charge:
    minimum data exchange during FFTs selected (reduces bandwidth)

 Broyden mixing: mesh for mixing (old mesh)
   NGX = 17   NGY = 17   NGZ = 17
  (NGX  = 72   NGY  = 72   NGZ  = 72)
  gives a total of   4913 points

 initial charge density was supplied:
 charge density of overlapping atoms calculated
 number of electron      18.0000000 magnetization
 keeping initial charge density in first step

 Maximum index for augmentation-charges         1891 (set IRDMAX)

 First call to EWALD:  gamma=   0.434
 Maximum number of real-space cells 3x 3x 3
 Maximum number of reciprocal cells 3x 3x 3

 FEWALD executed in parallel

----------------------------------------- Iteration    1(   1)  ---------------------------------------

 eigenvalue-minimisations  :  2048
 total energy-change (2. order) : 0.1938937E+02  (-0.9296345E+03)
 number of electron      18.0000000 magnetization
 augmentation part       18.0000000 magnetization

 Free energy of the ion-electron system (eV)
  alpha Z        PSCENC =        50.17222034
  Ewald energy   TEWEN  =     -1044.83138452
  -Hartree energ DENC   =      -510.12304479
  -exchange      EXHF   =         0.00000000
  -V(xc)+E(xc)   XCENC  =       -20.64396252
  PAW double counting   =      1402.45578259    -1331.56119850
  entropy T*S    EENTRO =        -0.00000000
  eigenvalues    EBANDS =       -42.28445491
  atomic energy  EATOM  =      1516.20541573
  free energy    TOTEN  =        19.38937342 eV

  energy without entropy =       19.38937342  energy(sigma->0) =       19.38937342

[...]

 eigenvalue-minimisations  :  3072
 total energy-change (2. order) :-0.2507537E+02  (-0.2507537E+02)
 number of electron      18.0000000 magnetization
 augmentation part       18.0000000 magnetization

[...]

 Broyden mixing:
  rms(total) = 0.54304E+00    rms(broyden)= 0.54304E+00
  rms(prec ) = 0.85381E+00
  weight for this iteration     100.00

[...]

 eigenvalues of (default mixing * dielectric matrix)
  average eigenvalue GAMMA=   1.8852
  1.8852

[...]

 the core state eigenenergies are
   1-  1s -26513.8923  2s  -3931.0635  2p  -3526.3201  3s   -727.8868  3p   -595.1763
       3d   -387.6328  4s    -99.9753  4p    -61.0193
   2-  1s -31612.9798  2s  -4840.5626  2p  -4343.9580  3s   -956.7823  3p   -795.4400
       3d   -551.6899  4s   -156.2928  4p   -106.3328  4d    -33.6597

 E-fermi :   2.2936     XC(G=0):  -8.7764     alpha+bet : -7.4227

 k-point     1 :       0.0000    0.0000    0.0000
  band No.  band energies     occupation
      1      -8.9998      2.00000
      2      -6.0502      2.00000
      3      -6.0502      2.00000
      4      -6.0502      2.00000
      5      -5.7862      2.00000
      6      -5.7862      2.00000
      7       2.2077      2.00000
      8       2.2077      2.00000
      9       2.2077      2.00000
     10       2.8652      0.00000
     11       6.7509      0.00000
     12       6.7509      0.00000
     13       6.7509      0.00000
     14       9.5036      0.00000
     15      11.5490      0.00000
     16      11.5490      0.00000
     17      12.1960      0.00000
     18      12.1960      0.00000
     19      12.1960      0.00000
     20      14.5150      0.00000
     21      21.9223      0.00000
     22      21.9223      0.00000
     23      21.9223      0.00000
     24      22.9171      0.00000
     25      22.9171      0.00000
     26      22.9171      0.00000
     27      23.9811      0.00000
     28      23.9811      0.00000
     29      23.9811      0.00000
     30      24.5882      0.00000
     31      24.5882      0.00000
     32      29.5668      0.00000
     33      30.5974      0.00000
     34      30.5974      0.00000
     35      30.5974      0.00000
     36      30.8470      0.00000
     37      31.4257      0.00000
     38      31.4257      0.00000
     39      33.3336      0.00000
     40      33.3336      0.00000
     41      33.3336      0.00000
     42      33.3977      0.00000
     43      33.3977      0.00000
     44      33.3977      0.00000
     45      34.8173      0.00000
     46      34.8173      0.00000
     47      34.8173      0.00000
     48      35.4129      0.00000
     49      35.4129      0.00000
     50      35.4129      0.00000
     51      36.4828      0.00000
     52      36.4828      0.00000
     53      36.4828      0.00000
     54      37.5500      0.00000
     55      39.4201      0.00000
     56      39.4201      0.00000
     57      41.1106      0.00000
     58      41.1106      0.00000
     59      41.1106      0.00000
     60      41.5686      0.00000
     61      41.5686      0.00000
     62      41.5686      0.00000
     63      41.7694      0.00000
     64      46.0171      0.00000

[...]

 soft charge-density along one line, spin component           1
         0         1         2         3         4         5         6         7         8         9
 total charge-density along one line

------------------------ aborting loop because EDIFF is reached ----------------------------------------

 total charge

# of ion     s       p       d       tot
  1        0.473   0.319   9.527  10.319
  2        1.351   2.047   0.021   3.420
tot        1.824   2.367   9.549  13.739

  FORCE on cell =-STRESS in cart. coord.  units (eV):
  Direction    XX          YY          ZZ          XY          YZ          ZX
  Alpha Z    50.17222    50.17222    50.17222
  Ewald    -348.27726  -348.27726  -348.27726     0.00000     0.00000    -0.00000
  Hartree   167.42611   167.42611   167.42611     0.00000    -0.00000    -0.00000
  E(xc)     -86.29260   -86.29260   -86.29260    -0.00000     0.00000     0.00000
  Local     -17.80667   -17.80667   -17.80667     0.00001    -0.00001    -0.00001
  n-local    22.60853    27.93488    27.04738    -1.75800    -3.05508    -1.14704
  augment     6.27214     6.27214     6.27214    -0.00001     0.00001     0.00001
  Kinetic   200.33832   203.88259   204.10898    -1.62880    -3.09618    -1.23694
  Fock        0.00000     0.00000     0.00000     0.00000     0.00000     0.00000
  Total       0.13417     0.13417     0.13417     0.00000    -0.00000     0.00000
  in kB       3.15604     3.15604     3.15604     0.00000    -0.00000     0.00000

 VOLUME and BASIS-vectors are now :
  energy-cutoff  :      500.00
  volume of cell :       68.11
      direct lattice vectors                 reciprocal lattice vectors
     3.241350000  3.241350000  0.000000000     0.154256714  0.154256714  0.154256714
     3.241350000  0.000000000 -3.241350000     0.154256714 -0.154256714 -0.154256714
     0.000000000  3.241350000 -3.241350000    -0.154256714  0.154256714 -0.154256714

[...]

 FORCES acting on ions
    electron-ion (+dipol)            ewald-force                    non-local-force                 convergence-correction
   -.329E-06 -.330E-06 0.330E-06   -.153E-13 -.130E-13 0.167E-13   0.000E+00 0.000E+00 0.000E+00   -.149E-08 -.149E-08 0.149E-08
   0.158E-06 0.164E-06 -.164E-06   0.145E-13 0.128E-13 -.169E-13   -.180E-15 -.125E-15 0.139E-15   0.576E-10 0.576E-10 -.576E-10
   -.172E-06 -.166E-06 0.166E-06   -.840E-15 -.129E-15 -.231E-15   -.180E-15 -.125E-15 0.139E-15   -.143E-08 -.143E-08 0.143E-08

 POSITION                                       TOTAL-FORCE (eV/Angst)
      0.00000      0.00000      0.00000         0.000000      0.000000     -0.000000
      1.62068      1.62068     -1.62068        -0.000000     -0.000000      0.000000
    total drift:                               -0.000000     -0.000000      0.000000

  FREE ENERGIE OF THE ION-ELECTRON SYSTEM (eV)
  free  energy   TOTEN  =        -5.48257939 eV

  energy  without entropy=       -5.48257939  energy(sigma->0) =       -5.48257939

[...]

 d Force = 0.0000000E+00[ 0.000E+00, 0.000E+00]  d Energy = 0.4344255E-03-0.434E-03
 d Force = 0.0000000E+00[ 0.000E+00, 0.000E+00]  d Ewald  =-0.3370424E+01 0.337E+01

 Steepest descent step on ions:
 trial-energy change:   -0.000434  1 .order   -0.000472   -0.001303    0.000358
  (g-gl).g = 0.130E-02      g.g   = 0.130E-02  gl.gl    = 0.000E+00
 g(Force)  = 0.368E-46   g(Stress)= 0.130E-02 ortho     = 0.000E+00
 gamma     =   0.00000
 trial     =   1.00000
 opt step  =   0.75938  (harmonic =   0.78430) maximal distance =0.00000000
 next E    =    -5.483057   (d E  =  -0.00048)

 FEWALD executed in parallel

[...]

 eigenvalue-minimisations  :  3328
 total energy-change (2. order) : 0.1013900E-04  (-0.2787511E-05)
 number of electron      17.9999998 magnetization
 augmentation part        4.5617834 magnetization

 Broyden mixing:
  rms(total) = 0.15870E-02    rms(broyden)= 0.15870E-02
  rms(prec ) = 0.17622E-02
  weight for this iteration     100.00

 eigenvalues of (default mixing * dielectric matrix)
  average eigenvalue GAMMA=   1.7594
  1.1649  2.4239  1.6894

[...]

----------------------------------------- Iteration    3(   5)  ---------------------------------------

 eigenvalue-minimisations  :  3264
 total energy-change (2. order) :-0.4964859E-06  (-0.1452972E-06)
 number of electron      17.9999998 magnetization
 augmentation part        4.5617834 magnetization

 Free energy of the ion-electron system (eV)
  alpha Z        PSCENC =        49.80412797
  Ewald energy   TEWEN  =     -1042.26994819
  -Hartree energ DENC   =      -503.70520135
  -exchange      EXHF   =         0.00000000
  -V(xc)+E(xc)   XCENC  =       -20.70972095
  PAW double counting   =      1708.55003984    -1637.29592613
  entropy T*S    EENTRO =        -0.00000000
  eigenvalues    EBANDS =       -76.06184904
  atomic energy  EATOM  =      1516.20541573
  free energy    TOTEN  =        -5.48306211 eV

  energy without entropy =       -5.48306211  energy(sigma->0) =       -5.48306211

 the core state eigenenergies are
   1-  1s -26513.9436  2s  -3931.1129  2p  -3526.3697  3s   -727.9358  3p   -595.2252
       3d   -387.6817  4s   -100.0233  4p    -61.0673
   2-  1s -31613.0400  2s  -4840.6217  2p  -4344.0172  3s   -956.8393  3p   -795.4970
       3d   -551.7471  4s   -156.3464  4p   -106.3860  4d    -33.7116

 E-fermi :   2.2266     XC(G=0):  -8.7433     alpha+bet : -7.3682

[...]

 k-point    16 :      -0.3333    0.5000    0.1667
  band No.  band energies     occupation
      1      -8.5048      2.00000
      2      -5.9608      2.00000
      3      -5.9599      2.00000
      4      -5.8799      2.00000
      5      -5.8195      2.00000
      6      -5.2966      2.00000
      7      -2.0822      2.00000
      8      -0.0718      2.00000
      9       0.0206      2.00000
     10       5.7858      0.00000
     11       5.8359      0.00000
     12       8.7336      0.00000
     13       9.0151      0.00000
     14      11.6099      0.00000
     15      13.1525      0.00000
     16      13.3895      0.00000
     17      13.5123      0.00000
     18      15.9046      0.00000
     19      16.7613      0.00000
     20      17.2484      0.00000
     21      17.2797      0.00000
     22      17.3989      0.00000
     23      17.5610      0.00000
     24      20.3033      0.00000
     25      20.4194      0.00000
     26      21.4166      0.00000
     27      21.7524      0.00000
     28      22.1183      0.00000
     29      22.6688      0.00000
     30      24.2976      0.00000
     31      24.9491      0.00000
     32      25.5085      0.00000
     33      26.6016      0.00000
     34      28.3603      0.00000
     35      28.4028      0.00000
     36      28.8634      0.00000
     37      29.8984      0.00000
     38      29.9280      0.00000
     39      30.7649      0.00000
     40      31.7853      0.00000
     41      32.4106      0.00000
     42      33.5272      0.00000
     43      34.6304      0.00000
     44      34.8139      0.00000
     45      35.0798      0.00000
     46      35.4150      0.00000
     47      36.8743      0.00000
     48      37.3589      0.00000
     49      37.5366      0.00000
     50      38.2469      0.00000
     51      38.4528      0.00000
     52      38.7881      0.00000
     53      39.6595      0.00000
     54      40.4263      0.00000
     55      40.7982      0.00000
     56      42.5968      0.00000
     57      42.7711      0.00000
     58      43.0476      0.00000
     59      44.2635      0.00000
     60      44.8718      0.00000
     61      44.9581      0.00000
     62      45.3492      0.00000
     63      45.4314      0.00000
     64      46.5371      0.00000

 soft charge-density along one line, spin component           1
         0         1         2         3         4         5         6         7         8         9
 total charge-density along one line

------------------------ aborting loop because EDIFF is reached ----------------------------------------

[...]

  FORCE on cell =-STRESS in cart. coord.  units (eV):
  Direction    XX          YY          ZZ          XY          YZ          ZX
  Alpha Z    49.80413    49.80413    49.80413
  Ewald    -347.42345  -347.42345  -347.42345    -0.00000    -0.00000    -0.00000
  Hartree   167.90077   167.90077   167.90077     0.00000    -0.00000    -0.00000
  E(xc)     -86.25906   -86.25906   -86.25906    -0.00000     0.00000     0.00000
  Local     -18.68494   -18.68494   -18.68494     0.00001    -0.00001    -0.00001
  n-local    22.43073    27.78156    26.88677    -1.76194    -3.05443    -1.15065
  augment     6.25972     6.25972     6.25972    -0.00001     0.00001     0.00001
  Kinetic   200.24386   203.82784   204.03478    -1.63226    -3.09196    -1.23797
  Fock        0.00000     0.00000     0.00000     0.00000     0.00000     0.00000
  Total      -0.00098    -0.00098    -0.00098     0.00000     0.00000     0.00000
  in kB      -0.02289    -0.02289    -0.02289     0.00000     0.00000     0.00000

 VOLUME and BASIS-vectors are now :
  energy-cutoff  :      500.00
  volume of cell :       68.61
      direct lattice vectors                 reciprocal lattice vectors
     3.249315798  3.249315798  0.000000000     0.153878549  0.153878549  0.153878549
     3.249315798  0.000000000 -3.249315798     0.153878549 -0.153878549 -0.153878549
     0.000000000  3.249315798 -3.249315798    -0.153878549  0.153878549 -0.153878549

  length of vectors
     4.595226470  4.595226470  4.595226470     0.266525465  0.266525465  0.266525465

 FORCES acting on ions
    electron-ion (+dipol)            ewald-force                    non-local-force                 convergence-correction
   -.338E-06 -.339E-06 0.339E-06   -.124E-14 0.429E-14 0.129E-14   -.451E-16 -.451E-16 0.278E-16   0.155E-08 0.155E-08 -.155E-08
   0.159E-06 0.160E-06 -.160E-06   -.499E-15 -.346E-14 -.517E-15   0.120E-16 -.139E-16 0.416E-16   0.476E-09 0.476E-09 -.476E-09
   -.179E-06 -.179E-06 0.179E-06   -.174E-14 0.831E-15 0.771E-15   -.331E-16 -.590E-16 0.694E-16   0.203E-08 0.203E-08 -.203E-08

 POSITION                                       TOTAL-FORCE (eV/Angst)
      0.00000      0.00000     -0.00000         0.000000      0.000000      0.000000
      1.62466      1.62466     -1.62466        -0.000000     -0.000000     -0.000000
    total drift:                               -0.000000     -0.000000      0.000000

  FREE ENERGIE OF THE ION-ELECTRON SYSTEM (eV)
  free  energy   TOTEN  =        -5.48306211 eV

  energy  without entropy=       -5.48306211  energy(sigma->0) =       -5.48306211

 d Force = 0.0000000E+00[ 0.000E+00, 0.000E+00]  d Energy = 0.4830355E-04-0.483E-04
 d Force = 0.0000000E+00[ 0.000E+00, 0.000E+00]  d Ewald  = 0.8089878E+00-0.809E+00

 reached required accuracy - stopping structural energy minimisation
 writing wavefunctions

 total charge

# of ion     s       p       d       tot
  1        0.471   0.315   9.528  10.314
  2        1.352   2.044   0.021   3.417
tot        1.823   2.359   9.548  13.730