 vasp.5.4.1 24Jun15 (build Nov 25 2015 16:01:35) complex

 executed on         CrayXC-Intel date 2016.06.10  04:48:42

 INCAR:
 POTCAR:    PAW_PBE C 08Apr2002
 POTCAR:    PAW_PBE N 08Apr2002
 POTCAR:    PAW_PBE H 15Jun2001
 POTCAR:    PAW_PBE Pb_d 06Sep2000
 POTCAR:    PAW_PBE I 08Apr2002
 POTCAR:    PAW_PBE C 08Apr2002
   VRHFIN =C: s2p2

   TITEL  = PAW_PBE C 08Apr2002
   POMASS =   12.011; ZVAL   =    4.000    mass and valenz
   ENMAX  =  400.000; ENMIN  =  300.000 eV

 POTCAR:    PAW_PBE N 08Apr2002
   VRHFIN =N: s2p3

[...]

 POTCAR:    PAW_PBE H 15Jun2001
   VRHFIN =H: ultrasoft test

   TITEL  = PAW_PBE H 15Jun2001
   POMASS =    1.000; ZVAL   =    1.000    mass and valenz
   ENMAX  =  250.000; ENMIN  =  200.000 eV

 POTCAR:    PAW_PBE Pb_d 06Sep2000
   VRHFIN =Pb:

   TITEL  = PAW_PBE Pb_d 06Sep2000
   POMASS =  207.200; ZVAL   =   14.000    mass and valenz
   ENMAX  =  237.835; ENMIN  =  178.376 eV

 POTCAR:    PAW_PBE I 08Apr2002
   VRHFIN =I : s2p5

   TITEL  = PAW_PBE I 08Apr2002
   POMASS =  126.904; ZVAL   =    7.000    mass and valenz
   ENMAX  =  175.647; ENMIN  =  131.735 eV

  PAW_PBE C 08Apr2002                   :
  PAW_PBE N 08Apr2002                   :
  PAW_PBE H 15Jun2001                   :
  PAW_PBE Pb_d 06Sep2000                :
  PAW_PBE I 08Apr2002                   :

 POSCAR: C N H Pb I
  positions in direct lattice
 exchange correlation table for  LEXCH =       14
   RHO(1)=    0.500       N(1)  =     2000
   RHO(2)=  100.500       N(2)  =     4000

 ion  position               nearest neighbor table
   1  0.198  0.250  0.229-  25 1.10  33 1.10  17 1.11   9 1.49
   2  0.696  0.250  0.229-  26 1.10  34 1.10  18 1.11  10 1.49
   3  0.196  0.750  0.229-  27 1.10  35 1.10  19 1.11  11 1.49
   4  0.698  0.750  0.229-  28 1.10  36 1.10  20 1.11  12 1.49
   5  0.196  0.250  0.729-  29 1.10  37 1.10  21 1.11  13 1.49
   6  0.698  0.250  0.729-  30 1.10  38 1.10  22 1.11  14 1.49
   7  0.198  0.750  0.729-  31 1.10  39 1.10  23 1.11  15 1.49
   8  0.696  0.750  0.729-  32 1.10  40 1.10  24 1.11  16 1.49
   9  0.311  0.250  0.261-  41 1.05  49 1.05  57 1.06   1 1.49
  10  0.798  0.250  0.286-  58 1.04  42 1.05  50 1.05   2 1.49
  11  0.298  0.750  0.286-  59 1.04  43 1.05  51 1.05   3 1.49
  12  0.811  0.750  0.261-  44 1.05  52 1.05  60 1.06   4 1.49
  13  0.298  0.250  0.786-  61 1.04  45 1.05  53 1.05   5 1.49
  14  0.811  0.250  0.761-  46 1.05  54 1.05  62 1.06   6 1.49
  15  0.311  0.750  0.761-  47 1.05  55 1.05  63 1.06   7 1.49
  16  0.798  0.750  0.786-  64 1.04  48 1.05  56 1.05   8 1.49
  17  0.196  0.250  0.142-   1 1.11
  18  0.715  0.250  0.144-   2 1.11
  19  0.215  0.750  0.144-   3 1.11
  20  0.696  0.750  0.142-   4 1.11
  21  0.215  0.250  0.644-   5 1.11
  22  0.696  0.250  0.642-   6 1.11
  23  0.196  0.750  0.642-   7 1.11
  24  0.715  0.750  0.644-   8 1.11
  25  0.158  0.322  0.260-   1 1.10
  26  0.651  0.322  0.251-   2 1.10
  27  0.151  0.822  0.251-   3 1.10
  28  0.658  0.822  0.260-   4 1.10
  29  0.151  0.322  0.751-   5 1.10
  30  0.658  0.322  0.760-   6 1.10
  31  0.158  0.822  0.760-   7 1.10
  32  0.651  0.822  0.751-   8 1.10
  33  0.158  0.177  0.260-   1 1.10
  34  0.651  0.177  0.251-   2 1.10
  35  0.151  0.677  0.251-   3 1.10
  36  0.658  0.677  0.260-   4 1.10
  37  0.151  0.177  0.751-   5 1.10
  38  0.658  0.177  0.760-   6 1.10
  39  0.158  0.677  0.760-   7 1.10
  40  0.651  0.677  0.751-   8 1.10
  41  0.352  0.318  0.234-   9 1.05
  42  0.844  0.318  0.268-  10 1.05
  43  0.344  0.818  0.268-  11 1.05
  44  0.852  0.818  0.234-  12 1.05
  45  0.344  0.318  0.768-  13 1.05
  46  0.852  0.318  0.734-  14 1.05
  47  0.352  0.818  0.734-  15 1.05
  48  0.844  0.818  0.768-  16 1.05
  49  0.352  0.182  0.234-   9 1.05
  50  0.844  0.182  0.268-  10 1.05
  51  0.344  0.682  0.268-  11 1.05
  52  0.852  0.682  0.234-  12 1.05
  53  0.344  0.182  0.768-  13 1.05
  54  0.852  0.182  0.734-  14 1.05
  55  0.352  0.682  0.734-  15 1.05
  56  0.844  0.682  0.768-  16 1.05
  57  0.320  0.250  0.343-   9 1.06
  58  0.787  0.250  0.368-  10 1.04
  59  0.287  0.750  0.368-  11 1.04
  60  0.820  0.750  0.343-  12 1.06
[...]
  82  0.925  0.250  0.013-  72 3.17  70 3.17
  83  0.425  0.750  0.013-  69 3.17  71 3.17
  84  0.975  0.750  0.011-  70 3.15  72 3.15
  85  0.425  0.250  0.513-  67 3.17  65 3.17
  86  0.975  0.250  0.511-  68 3.15  66 3.15
  87  0.475  0.750  0.511-  65 3.15  67 3.15
  88  0.925  0.750  0.513-  66 3.17  68 3.17
  89  0.216  0.529  0.461-  66 3.10  65 3.27
  90  0.716  0.471  0.461-  65 3.10  66 3.27
  91  0.216  0.971  0.461-  68 3.10  67 3.27
  92  0.716  0.029  0.461-  67 3.10  68 3.27
  93  0.216  0.471  0.961-  70 3.10  69 3.27
  94  0.716  0.529  0.961-  69 3.10  70 3.27
  95  0.216  0.029  0.961-  72 3.10  71 3.27
  96  0.716  0.971  0.961-  71 3.10  72 3.27

  LATTYP: Found a triclinic cell.
 ALAT       =    17.8238589327
 B/A-ratio  =     0.6989248630
 C/A-ratio  =     1.0156975818
 COS(alpha) =     0.0001355172
 COS(beta)  =     0.5146378593
 COS(gamma) =     0.6988877578

  Lattice vectors:

 A1 = (  -0.1406063366, -12.4576271275, -12.7466742118)
 A2 = (  -0.0011956322, -12.4575380825,   0.0007464135)
 A3 = ( -12.7162481321,  -0.0020049566, -12.8856194186)

Analysis of symmetry for initial positions (statically):
 Subroutine PRICEL returns following result:

[...]

   4 primitive cells build up your supercell.

 Routine SETGRP: Setting up the symmetry group for a
 triclinic supercell.

 Subroutine GETGRP returns: Found  1 space group operations
 (whereof  1 operations were pure point group operations)
 out of a pool of  2 trial point group operations.

The static configuration has the point symmetry C_1 .

Analysis of symmetry for dynamics (positions and initial velocities):
 Subroutine PRICEL returns following result:

  LATTYP: Found a triclinic cell.
 ALAT       =     8.8524544993
 B/A-ratio  =     1.4072411401
 C/A-ratio  =     1.0225215175
 COS(alpha) =     0.0001355172
 COS(beta)  =     0.5046167836
 COS(gamma) =     0.7037964938

  Lattice vectors:

 A1 = (   6.2890165300,   6.2297269971,   0.0687261899)
 A2 = (   0.0011956322,  12.4575380825,  -0.0007464135)
 A3 = (   6.3581240661,   0.0010024783,   6.4428097093)

   4 primitive cells build up your supercell.

 Routine SETGRP: Setting up the symmetry group for a
 triclinic supercell.

 Subroutine GETGRP returns: Found  1 space group operations
 (whereof  1 operations were pure point group operations)
 out of a pool of  2 trial point group operations.

The dynamic configuration has the point symmetry C_1 .

 Subroutine INISYM returns: Found  1 space group operations
 (whereof  1 operations are pure point group operations),
 and found     4 'primitive' translations

 KPOINTS: Automatic 3x3x3

Automatic generation of k-mesh.
Space group operators:
 irot       det(A)        alpha          n_x          n_y          n_z        tau_x        tau_y        tau_z
    1     1.000000     0.000000     1.000000     0.000000     0.000000     0.000000     0.000000     0.000000

 Subroutine IBZKPT returns following result:

 Found     14 irreducible k-points:

 Following reciprocal coordinates:
            Coordinates               Weight
  0.000000  0.000000  0.000000      1.000000
  0.333333 -0.000000 -0.000000      2.000000
  0.000000  0.333333 -0.000000      2.000000
  0.333333  0.333333  0.000000      2.000000
 -0.333333  0.333333  0.000000      2.000000
  0.000000  0.000000  0.333333      2.000000
  0.333333  0.000000  0.333333      2.000000
 -0.333333  0.000000  0.333333      2.000000
  0.000000  0.333333  0.333333      2.000000
  0.333333  0.333333  0.333333      2.000000
 -0.333333  0.333333  0.333333      2.000000
  0.000000 -0.333333  0.333333      2.000000
  0.333333 -0.333333  0.333333      2.000000
 -0.333333 -0.333333  0.333333      2.000000

 Following cartesian coordinates:
            Coordinates               Weight
  0.000000  0.000000  0.000000      1.000000
  0.026507 -0.000003 -0.000290      2.000000
 -0.000004  0.026758 -0.000000      2.000000
  0.026503  0.026755 -0.000290      2.000000
 -0.026511  0.026760  0.000290      2.000000
 -0.000287  0.000002  0.026152      2.000000
  0.026220 -0.000001  0.025862      2.000000
 -0.026794  0.000004  0.026442      2.000000
 -0.000291  0.026759  0.026152      2.000000
  0.026215  0.026757  0.025862      2.000000
 -0.026798  0.026762  0.026442      2.000000
 -0.000283 -0.026756  0.026152      2.000000
  0.026224 -0.026759  0.025862      2.000000
 -0.026790 -0.026753  0.026442      2.000000

 I would recommend the setting:
   dimension x,y,z NGX =   109 NGY =  107 NGZ =  110
 SYSTEM =  MAPbI3-Cubic
 POSCAR =  C N H Pb I

 Startparameter for this run:
   NWRITE =      2    write-flag & timer
   PREC   = accura    normal or accurate (medium, high low for compatibility)
   ISTART =      0    job   : 0-new  1-cont  2-samecut
   ICHARG =      2    charge: 1-file 2-atom 10-const
   ISPIN  =      1    spin polarized calculation?
   LNONCOLLINEAR =      F non collinear calculations
   LSORBIT =      F    spin-orbit coupling
   INIWAV =      1    electr: 0-lowe 1-rand  2-diag
   LASPH  =      F    aspherical Exc in radial PAW
   METAGGA=      F    non-selfconsistent MetaGGA calc.

 Electronic Relaxation 1
   ENCUT  =  700.0 eV  51.45 Ry    7.17 a.u.  27.13 26.87 27.50*2*pi/ulx,y,z
   ENINI  =  700.0     initial cutoff
   ENAUG  =  644.9 eV  augmentation charge cutoff
   NELM   =     60;   NELMIN=  2; NELMDL= -5     # of ELM steps
   EDIFF  = 0.1E-07   stopping-criterion for ELM
   LREAL  =      F    real-space projection
   NLSPLINE    = F    spline interpolate recip. space projectors
   LCOMPAT=      F    compatible to vasp.4.4
   GGA_COMPAT  = T    GGA compatible to vasp.4.4-vasp.4.6
   LMAXPAW     = -100 max onsite density
   LMAXMIX     =    2 max onsite mixed and CHGCAR
   VOSKOWN=      0    Vosko Wilk Nusair interpolation
   ROPT   =    0.00000   0.00000   0.00000   0.00000
   ROPT   =    0.00000
 Ionic relaxation
   EDIFFG = 0.1E-06   stopping-criterion for IOM
   NSW    =      0    number of steps for IOM
   NBLOCK =      1;   KBLOCK =      1    inner block; outer block
   IBRION =     -1    ionic relax: 0-MD 1-quasi-New 2-CG
   NFREE  =      0    steps in history (QN), initial steepest desc. (CG)
   ISIF   =      2    stress and relaxation
   IWAVPR =     10    prediction:  0-non 1-charg 2-wave 3-comb
   ISYM   =      2    0-nonsym 1-usesym 2-fastsym
   LCORR  =      T    Harris-Foulkes like correction to forces

   POTIM  = 0.5000    time-step for ionic-motion
   TEIN   =    0.0    initial temperature
   TEBEG  =    0.0;   TEEND  =   0.0 temperature during run
   SMASS  =  -3.00    Nose mass-parameter (am)
   estimated Nose-frequenzy (Omega)   =  0.10E-29 period in steps =****** mass=  -0.362E-26a.u.
   SCALEE = 1.0000    scale energy and forces
   NPACO  =    256;   APACO  = 16.0  distance and # of slots for P.C.
   PSTRESS=    0.0 pullay stress

  Mass of Ions in am
   POMASS =  12.01 14.00  1.00207.20126.90
  Ionic Valenz
   ZVAL   =   4.00  5.00  1.00 14.00  7.00
  Atomic Wigner-Seitz radii
  virtual crystal weights
   VCA    =   1.00  1.00  1.00  1.00  1.00
[...]
     0.139410704  0.000089045 12.747420625    -0.000862111  0.000004784  0.078456671

  length of vectors
    12.577596840 12.457538162 12.748182927     0.079525558  0.080272685  0.078461408

 FORCES acting on ions
    electron-ion (+dipol)            ewald-force                    non-local-force                 convergence-correction
   0.887E+02 0.437E-01 0.236E+02   -.958E+02 -.534E-01 -.260E+02   0.728E+01 0.917E-02 0.228E+01   -.144E-04 -.410E-07 0.671E-05
   0.809E+02 0.695E-01 0.494E+02   -.873E+02 -.767E-01 -.534E+02   0.660E+01 0.659E-02 0.397E+01   0.284E-05 0.191E-05 0.130E-04
   0.809E+02 0.695E-01 0.494E+02   -.873E+02 -.767E-01 -.534E+02   0.660E+01 0.659E-02 0.397E+01   0.389E-05 0.388E-06 0.140E-04
   0.887E+02 0.437E-01 0.236E+02   -.958E+02 -.534E-01 -.260E+02   0.728E+01 0.917E-02 0.228E+01   -.152E-04 -.189E-05 0.621E-05
   0.809E+02 0.695E-01 0.494E+02   -.873E+02 -.767E-01 -.534E+02   0.660E+01 0.659E-02 0.397E+01   0.297E-05 0.111E-05 0.121E-04
   0.887E+02 0.437E-01 0.236E+02   -.958E+02 -.534E-01 -.260E+02   0.728E+01 0.917E-02 0.228E+01   -.148E-04 0.339E-05 0.588E-05
   0.887E+02 0.437E-01 0.236E+02   -.958E+02 -.534E-01 -.260E+02   0.728E+01 0.917E-02 0.228E+01   -.147E-04 -.125E-05 0.486E-05
   0.809E+02 0.695E-01 0.494E+02   -.873E+02 -.767E-01 -.534E+02   0.660E+01 0.659E-02 0.397E+01   0.312E-05 -.339E-05 0.126E-04
   -.363E+02 -.138E+00 -.158E+02   0.350E+02 0.136E+00 0.159E+02   0.120E+01 0.146E-02 -.108E-01   -.202E-04 -.725E-06 -.920E-06
   -.388E+02 -.396E-01 -.172E+02   0.378E+02 0.352E-01 0.164E+02   0.920E+00 0.353E-02 0.748E+00   0.385E-04 0.362E-05 0.185E-04
   -.388E+02 -.396E-01 -.172E+02   0.378E+02 0.352E-01 0.164E+02   0.920E+00 0.353E-02 0.748E+00   0.387E-04 0.173E-05 0.181E-04
   -.363E+02 -.138E+00 -.158E+02   0.350E+02 0.136E+00 0.159E+02   0.120E+01 0.146E-02 -.108E-01   -.195E-04 -.337E-05 0.139E-05
   -.388E+02 -.396E-01 -.172E+02   0.378E+02 0.352E-01 0.164E+02   0.920E+00 0.353E-02 0.748E+00   0.389E-04 0.419E-06 0.175E-04
   -.363E+02 -.138E+00 -.158E+02   0.350E+02 0.136E+00 0.159E+02   0.120E+01 0.146E-02 -.108E-01   -.197E-04 0.512E-05 -.192E-05
   -.363E+02 -.138E+00 -.158E+02   0.350E+02 0.136E+00 0.159E+02   0.120E+01 0.146E-02 -.108E-01   -.192E-04 -.108E-05 -.633E-06
   -.388E+02 -.396E-01 -.172E+02   0.378E+02 0.352E-01 0.164E+02   0.920E+00 0.353E-02 0.748E+00   0.384E-04 -.549E-05 0.159E-04
   0.111E+02 0.380E-01 0.496E+02   -.114E+02 -.438E-01 -.550E+02   0.338E+00 0.579E-02 0.561E+01   -.262E-05 0.477E-08 0.430E-05
   0.364E+00 0.533E-01 0.522E+02   0.560E+00 -.587E-01 -.575E+02   -.963E+00 0.542E-02 0.554E+01   0.212E-05 0.624E-06 -.577E-05
   0.364E+00 0.533E-01 0.522E+02   0.560E+00 -.587E-01 -.575E+02   -.963E+00 0.542E-02 0.554E+01   0.277E-05 -.248E-07 -.583E-05
   0.111E+02 0.380E-01 0.496E+02   -.114E+02 -.438E-01 -.550E+02   0.338E+00 0.579E-02 0.561E+01   -.316E-05 -.701E-06 0.405E-05
   0.364E+00 0.533E-01 0.522E+02   0.560E+00 -.587E-01 -.575E+02   -.963E+00 0.542E-02 0.554E+01   0.218E-05 0.147E-06 -.582E-05
   0.111E+02 0.380E-01 0.496E+02   -.114E+02 -.438E-01 -.550E+02   0.338E+00 0.579E-02 0.561E+01   -.277E-05 0.824E-06 0.420E-05
   0.111E+02 0.380E-01 0.496E+02   -.114E+02 -.438E-01 -.550E+02   0.338E+00 0.579E-02 0.561E+01   -.302E-05 -.898E-07 0.384E-05
   0.364E+00 0.533E-01 0.522E+02   0.560E+00 -.587E-01 -.575E+02   -.963E+00 0.542E-02 0.554E+01   0.258E-05 -.783E-06 -.594E-05
   0.289E+02 -.390E+02 -.145E+02   -.315E+02 0.436E+02 0.164E+02   0.269E+01 -.461E+01 -.196E+01   -.267E-05 -.282E-05 0.636E-06
   0.316E+02 -.393E+02 -.572E+01   -.346E+02 0.439E+02 0.703E+01   0.302E+01 -.461E+01 -.132E+01   -.440E-05 0.623E-05 0.447E-05
   0.316E+02 -.393E+02 -.572E+01   -.346E+02 0.439E+02 0.703E+01   0.302E+01 -.461E+01 -.132E+01   -.424E-05 0.605E-05 0.518E-05
   0.289E+02 -.390E+02 -.145E+02   -.315E+02 0.436E+02 0.164E+02   0.269E+01 -.461E+01 -.196E+01   -.298E-05 -.313E-05 0.542E-06
   0.316E+02 -.393E+02 -.572E+01   -.346E+02 0.439E+02 0.703E+01   0.302E+01 -.461E+01 -.132E+01   -.497E-05 0.645E-05 0.413E-05
   0.289E+02 -.390E+02 -.145E+02   -.315E+02 0.436E+02 0.164E+02   0.269E+01 -.461E+01 -.196E+01   -.273E-05 -.175E-05 0.618E-06
   0.289E+02 -.390E+02 -.145E+02   -.315E+02 0.436E+02 0.164E+02   0.269E+01 -.461E+01 -.196E+01   -.245E-05 -.303E-05 0.129E-06
   0.316E+02 -.393E+02 -.572E+01   -.346E+02 0.439E+02 0.703E+01   0.302E+01 -.461E+01 -.132E+01   -.471E-05 0.514E-05 0.440E-05
   0.288E+02 0.390E+02 -.146E+02   -.314E+02 -.436E+02 0.165E+02   0.268E+01 0.461E+01 -.197E+01   -.239E-05 0.268E-05 0.871E-06
   0.316E+02 0.393E+02 -.580E+01   -.345E+02 -.439E+02 0.712E+01   0.302E+01 0.461E+01 -.133E+01   -.483E-05 -.557E-05 0.445E-05
   0.316E+02 0.393E+02 -.580E+01   -.345E+02 -.439E+02 0.712E+01   0.302E+01 0.461E+01 -.133E+01   -.454E-05 -.578E-05 0.476E-05
   0.288E+02 0.390E+02 -.146E+02   -.314E+02 -.436E+02 0.165E+02   0.268E+01 0.461E+01 -.197E+01   -.256E-05 0.253E-05 0.447E-06
   0.316E+02 0.393E+02 -.580E+01   -.345E+02 -.439E+02 0.712E+01   0.302E+01 0.461E+01 -.133E+01   -.429E-05 -.573E-05 0.432E-05
   0.288E+02 0.390E+02 -.146E+02   -.314E+02 -.436E+02 0.165E+02   0.268E+01 0.461E+01 -.197E+01   -.278E-05 0.346E-05 0.408E-06
   0.288E+02 0.390E+02 -.146E+02   -.314E+02 -.436E+02 0.165E+02   0.268E+01 0.461E+01 -.197E+01   -.303E-05 0.224E-05 0.142E-06
   0.316E+02 0.393E+02 -.580E+01   -.345E+02 -.439E+02 0.712E+01   0.302E+01 0.461E+01 -.133E+01   -.466E-05 -.687E-05 0.474E-05
   -.308E+02 -.482E+02 0.200E+02   0.341E+02 0.536E+02 -.222E+02   -.336E+01 -.549E+01 0.226E+01   -.713E-05 -.490E-05 0.138E-05
   -.359E+02 -.478E+02 0.147E+02   0.395E+02 0.532E+02 -.161E+02   -.373E+01 -.548E+01 0.147E+01   0.837E-05 0.119E-05 0.240E-05
   -.359E+02 -.478E+02 0.147E+02   0.395E+02 0.532E+02 -.161E+02   -.373E+01 -.548E+01 0.147E+01   0.860E-05 0.138E-05 0.223E-05
   -.308E+02 -.482E+02 0.200E+02   0.341E+02 0.536E+02 -.222E+02   -.336E+01 -.549E+01 0.226E+01   -.693E-05 -.525E-05 0.200E-05
   -.359E+02 -.478E+02 0.147E+02   0.395E+02 0.532E+02 -.161E+02   -.373E+01 -.548E+01 0.147E+01   0.882E-05 0.127E-05 0.201E-05
   -.308E+02 -.482E+02 0.200E+02   0.341E+02 0.536E+02 -.222E+02   -.336E+01 -.549E+01 0.226E+01   -.649E-05 -.288E-05 0.131E-05
   -.308E+02 -.482E+02 0.200E+02   0.341E+02 0.536E+02 -.222E+02   -.336E+01 -.549E+01 0.226E+01   -.716E-05 -.507E-05 0.148E-05
   -.359E+02 -.478E+02 0.147E+02   0.395E+02 0.532E+02 -.161E+02   -.373E+01 -.548E+01 0.147E+01   0.854E-05 -.256E-06 0.152E-05
   -.309E+02 0.481E+02 0.199E+02   0.342E+02 -.536E+02 -.221E+02   -.337E+01 0.548E+01 0.225E+01   -.692E-05 0.408E-05 0.158E-05
   -.359E+02 0.478E+02 0.145E+02   0.395E+02 -.532E+02 -.160E+02   -.373E+01 0.548E+01 0.146E+01   0.856E-05 -.185E-06 0.229E-05
   -.359E+02 0.478E+02 0.145E+02   0.395E+02 -.532E+02 -.160E+02   -.373E+01 0.548E+01 0.146E+01   0.844E-05 -.303E-06 0.196E-05
   -.309E+02 0.481E+02 0.199E+02   0.342E+02 -.536E+02 -.221E+02   -.337E+01 0.548E+01 0.225E+01   -.714E-05 0.433E-05 0.188E-05
   -.359E+02 0.478E+02 0.145E+02   0.395E+02 -.532E+02 -.160E+02   -.373E+01 0.548E+01 0.146E+01   0.825E-05 -.550E-06 0.218E-05
   -.309E+02 0.481E+02 0.199E+02   0.342E+02 -.536E+02 -.221E+02   -.337E+01 0.548E+01 0.225E+01   -.697E-05 0.555E-05 0.118E-05
   -.309E+02 0.481E+02 0.199E+02   0.342E+02 -.536E+02 -.221E+02   -.337E+01 0.548E+01 0.225E+01   -.668E-05 0.412E-05 0.156E-05
   -.359E+02 0.478E+02 0.145E+02   0.395E+02 -.532E+02 -.160E+02   -.373E+01 0.548E+01 0.146E+01   0.906E-05 -.259E-05 0.163E-05
   -.365E+01 -.562E-01 -.604E+02   0.438E+01 0.608E-01 0.667E+02   -.821E+00 -.432E-02 -.658E+01   -.473E-05 -.322E-06 -.736E-05
   0.100E+02 -.799E-01 -.646E+02   -.109E+02 0.904E-01 0.714E+02   0.889E+00 -.104E-01 -.695E+01   0.401E-05 0.821E-06 0.375E-05
   0.100E+02 -.799E-01 -.646E+02   -.109E+02 0.904E-01 0.714E+02   0.889E+00 -.104E-01 -.695E+01   0.370E-05 0.706E-06 0.402E-05
   -.365E+01 -.562E-01 -.604E+02   0.438E+01 0.608E-01 0.667E+02   -.821E+00 -.432E-02 -.658E+01   -.425E-05 -.590E-06 -.698E-05
[...]
   0.744E+01 -.534E-01 -.179E+02   -.782E+01 0.547E-01 0.187E+02   0.381E+00 -.103E-02 -.854E+00   0.311E-04 -.423E-05 -.602E-05
   -.355E+02 -.522E-01 -.114E+02   0.358E+02 0.534E-01 0.118E+02   -.201E+00 -.960E-03 -.489E+00   -.114E-05 -.748E-05 -.211E-04
   0.744E+01 -.534E-01 -.179E+02   -.782E+01 0.547E-01 0.187E+02   0.381E+00 -.103E-02 -.854E+00   0.290E-04 0.102E-05 -.338E-05
   -.355E+02 -.522E-01 -.114E+02   0.358E+02 0.534E-01 0.118E+02   -.201E+00 -.960E-03 -.489E+00   -.435E-06 0.508E-05 -.185E-04
   -.355E+02 -.522E-01 -.114E+02   0.358E+02 0.534E-01 0.118E+02   -.201E+00 -.960E-03 -.489E+00   -.257E-05 -.136E-05 -.187E-04
   0.744E+01 -.534E-01 -.179E+02   -.782E+01 0.547E-01 0.187E+02   0.381E+00 -.103E-02 -.854E+00   0.322E-04 -.550E-05 -.364E-05
   0.488E+01 0.190E+01 -.492E+01   -.435E+01 -.174E+01 0.452E+01   -.549E+00 -.159E+00 0.454E+00   -.715E-05 -.649E-05 0.572E-05
   0.488E+01 -.190E+01 -.499E+01   -.435E+01 0.174E+01 0.459E+01   -.549E+00 0.157E+00 0.453E+00   -.114E-05 0.945E-05 0.551E-05
   0.488E+01 -.190E+01 -.499E+01   -.435E+01 0.174E+01 0.459E+01   -.549E+00 0.157E+00 0.453E+00   -.278E-05 0.642E-05 0.215E-05
   0.488E+01 0.190E+01 -.492E+01   -.435E+01 -.174E+01 0.452E+01   -.549E+00 -.159E+00 0.454E+00   -.521E-05 -.829E-05 0.303E-05
   0.488E+01 -.190E+01 -.499E+01   -.435E+01 0.174E+01 0.459E+01   -.549E+00 0.157E+00 0.453E+00   -.258E-05 0.944E-05 0.102E-05
   0.488E+01 0.190E+01 -.492E+01   -.435E+01 -.174E+01 0.452E+01   -.549E+00 -.159E+00 0.454E+00   -.667E-05 -.827E-05 -.198E-06
   0.488E+01 0.190E+01 -.492E+01   -.435E+01 -.174E+01 0.452E+01   -.549E+00 -.159E+00 0.454E+00   0.182E-05 -.763E-05 0.111E-05
   0.488E+01 -.190E+01 -.499E+01   -.435E+01 0.174E+01 0.459E+01   -.549E+00 0.157E+00 0.453E+00   -.819E-05 0.537E-05 0.150E-05
   -.545E+02 -.972E-01 -.219E+02   0.444E-12 -.152E-12 -.492E-12   0.545E+02 0.972E-01 0.219E+02   0.239E-03 0.866E-06 0.645E-04

 POSITION                                       TOTAL-FORCE (eV/Angst)
      2.51807      3.11299      2.94139         0.140587     -0.000486     -0.071948
      8.78990      3.11525      3.01794         0.161154     -0.000566     -0.031082
      2.50208      9.34306      2.94847         0.161154     -0.000566     -0.031082
      8.80708      9.34272      3.01012         0.140587     -0.000486     -0.071948
      2.57119      3.11433      9.32255         0.161154     -0.000566     -0.031082
      8.87619      3.11399      9.38420         0.140587     -0.000486     -0.071948
      2.58837      9.34180      9.31473         0.140587     -0.000486     -0.071948
      8.86021      9.34406      9.39128         0.161154     -0.000566     -0.031082
      3.94389      3.11463      3.37363        -0.052447     -0.000723      0.050156
     10.08172      3.11640      3.76190        -0.066240     -0.000840     -0.028026
      3.79390      9.34421      3.69243        -0.066240     -0.000840     -0.028026
     10.23291      9.34436      3.44236        -0.052447     -0.000723      0.050156
      3.86300      3.11549     10.06652        -0.066240     -0.000840     -0.028026
     10.30202      3.11563      9.81644        -0.052447     -0.000723      0.050156
      4.01420      9.34344      9.74697        -0.052447     -0.000723      0.050156
     10.15202      9.34522     10.13524        -0.066240     -0.000840     -0.028026
      2.47974      3.11190      1.83527         0.027037      0.000078      0.237855
      9.00751      3.11418      1.93306        -0.038917      0.000063      0.240057
      2.71969      9.34200      1.86359        -0.038917      0.000063      0.240057
      8.76876      9.34162      1.90400         0.027037      0.000078      0.237855
      2.78880      3.11327      8.23767        -0.038917      0.000063      0.240057
      8.83787      3.11290      8.27808         0.027037      0.000078      0.237855
      2.55004      9.34071      8.20861         0.027037      0.000078      0.237855
      9.07781      9.34300      8.30640        -0.038917      0.000063      0.240057
      2.02129      4.01445      3.33385         0.065736     -0.041657     -0.023673
      8.22131      4.01857      3.29175         0.068096     -0.041936     -0.010505
      1.93349     10.24638      3.22228         0.068096     -0.041936     -0.010505
      8.31030     10.24418      3.40257         0.065736     -0.041657     -0.023673
      2.00260      4.01766      9.59636         0.068096     -0.041936     -0.010505
      8.37941      4.01546      9.77666         0.065736     -0.041657     -0.023673
      2.09159     10.24327      9.70719         0.065736     -0.041657     -0.023673
      8.29161     10.24738      9.66509         0.068096     -0.041936     -0.010505
      2.02300      2.21131      3.33557         0.065490      0.042283     -0.024279
      8.22192      2.21212      3.29373         0.068008      0.042492     -0.011093
      1.93410      8.43993      3.22425         0.068008      0.042492     -0.011093
      8.31202      8.44103      3.40430         0.065490      0.042283     -0.024279
      2.00321      2.21120      9.59834         0.068008      0.042492     -0.011093
      8.38113      2.21231      9.77838         0.065490      0.042283     -0.024279
      2.09331      8.44012      9.70891         0.065490      0.042283     -0.024279
      8.29223      8.44093      9.66706         0.068008      0.042492     -0.011093
      4.45793      3.95939      3.02587        -0.082752     -0.060267      0.031383
     10.65803      3.96280      3.53197        -0.091624     -0.063809      0.013218
      4.37021     10.19062      3.46250        -0.091624     -0.063809      0.013218
     10.74694     10.18912      3.09460        -0.082752     -0.060267      0.031383
      4.43932      3.96189      9.83658        -0.091624     -0.063809      0.013218
     10.81605      3.96040      9.46868        -0.082752     -0.060267      0.031383
      4.52823     10.18821      9.39921        -0.082752     -0.060267      0.031383
     10.72834     10.19162      9.90531        -0.091624     -0.063809      0.013218
      4.45932      2.27013      3.02712        -0.083529      0.060748      0.030735
     10.65813      2.26937      3.53438        -0.092225      0.064393      0.012313
      4.37031      8.49718      3.46490        -0.092225      0.064393      0.012313
     10.74834      8.49986      3.09584        -0.083529      0.060748      0.030735
      4.43941      2.26845      9.83899        -0.092225      0.064393      0.012313
     10.81745      2.27113      9.46993        -0.083529      0.060748      0.030735
      4.52963      8.49894      9.40046        -0.083529      0.060748      0.030735
     10.72843      8.49818      9.90771        -0.092225      0.064393      0.012313
      4.06959      3.11533      4.42155        -0.087170      0.000288     -0.226732
      9.94441      3.11795      4.79717        -0.005953      0.000132     -0.219050
      3.65659      9.34576      4.72770        -0.005953      0.000132     -0.219050
     10.35861      9.34506      4.49028        -0.087170      0.000288     -0.226732
[...]
     11.62948      3.11597      0.29272         0.000130      0.000254     -0.047495
      5.34166      9.34378      0.22325         0.000130      0.000254     -0.047495
     12.26184      9.34469      0.27067         0.034234      0.000253     -0.026969
      5.41077      3.11506      6.59733         0.000130      0.000254     -0.047495
     12.33094      3.11596      6.64475         0.034234      0.000253     -0.026969
      6.04312      9.34377      6.57528         0.034234      0.000253     -0.026969
     11.69978      9.34478      6.66606         0.000130      0.000254     -0.047495
      2.78361      6.58828      5.90948        -0.020038      0.003417      0.056152
      9.07211      5.87106      5.97786        -0.020140     -0.003325      0.056388
      2.78429     12.09887      5.90838        -0.020140     -0.003325      0.056388
      9.07143      0.36047      5.97895        -0.020038      0.003417      0.056152
      2.85340      5.87015     12.28247        -0.020140     -0.003325      0.056388
      9.14174      6.58928     12.35229        -0.020038      0.003417      0.056152
      2.85272      0.35955     12.28356        -0.020038      0.003417      0.056152
      9.14241     12.09988     12.35119        -0.020140     -0.003325      0.056388
    total drift:                                0.003428     -0.000043     -0.000500

  FREE ENERGIE OF THE ION-ELECTRON SYSTEM (eV)
  free  energy   TOTEN  =      -416.85074066 eV

  energy  without entropy=     -416.85074066  energy(sigma->0) =     -416.85074066