 vasp.5.3.5 31Mar14 (build Apr 15 2015 10:45:18) complex

 executed on             LinuxIFC date 2016.02.15  15:05:30

 INCAR:
 POTCAR:    PAW_PBE Cd 06Sep2000
 POTCAR:    PAW_PBE Te 08Apr2002

 POTCAR:    PAW_PBE Cd 06Sep2000
   VRHFIN =Cd : s2 d10

   TITEL  = PAW_PBE Cd 06Sep2000
   POMASS =  112.411; ZVAL   =   12.000    mass and valenz
   ENMAX  =  274.336; ENMIN  =  205.752 eV

 POTCAR:    PAW_PBE Te 08Apr2002
   VRHFIN =Te: s2p4

   TITEL  = PAW_PBE Te 08Apr2002
   POMASS =  127.600; ZVAL   =    6.000    mass and valenz
   ENMAX  =  174.982; ENMIN  =  131.236 eV

  PAW_PBE Cd 06Sep2000                  :
  PAW_PBE Te 08Apr2002                  :

 POSCAR: CdTe (ICSD, 295K, Rabadanov 2001)
  positions in direct lattice
  velocities in cartesian coordinates
 exchange correlation table for  LEXCH =        8
   RHO(1)=    0.500       N(1)  =     2000
   RHO(2)=  100.500       N(2)  =     4000

 ion  position               nearest neighbor table
   1  0.000  0.000  0.000-   2 2.81   2 2.81   2 2.81   2 2.81
   2  0.250  0.250  0.250-   1 2.81   1 2.81   1 2.81   1 2.81

  LATTYP: Found a face centered cubic cell.
 ALAT       =     6.4827000000

  Lattice vectors:

 A1 = (   3.2413500000,   3.2413500000,   0.0000000000)
 A2 = (   3.2413500000,   0.0000000000,  -3.2413500000)
 A3 = (   0.0000000000,   3.2413500000,  -3.2413500000)

Analysis of symmetry for initial positions (statically):
 Subroutine PRICEL returns:
 Original cell was already a primitive cell.

 Routine SETGRP: Setting up the symmetry group for a
 face centered cubic supercell.

 Subroutine GETGRP returns: Found 24 space group operations
 (whereof 24 operations were pure point group operations)
 out of a pool of 48 trial point group operations.

The static configuration has the point symmetry T_d .

Analysis of symmetry for dynamics (positions and initial velocities):
 Subroutine PRICEL returns:
 Original cell was already a primitive cell.

 Routine SETGRP: Setting up the symmetry group for a
 face centered cubic supercell.

 Subroutine GETGRP returns: Found 24 space group operations
 (whereof 24 operations were pure point group operations)
 out of a pool of 48 trial point group operations.

The dynamic configuration has the point symmetry T_d .

 KPOINTS: Automatically generated mesh
  k-points in reciprocal lattice
Space group operators:
 irot       det(A)        alpha          n_x          n_y          n_z        tau_x        tau_y        tau_z
    1     1.000000     0.000000     1.000000     0.000000     0.000000     0.000000     0.000000     0.000000
    2     1.000000   120.000000    -0.577350    -0.577350     0.577350     0.000000     0.000000     0.000000
    3     1.000000   120.000000     0.577350     0.577350    -0.577350     0.000000     0.000000     0.000000
    4    -1.000000    90.000000    -1.000000     0.000000     0.000000     0.000000     0.000000     0.000000
    5    -1.000000   180.000000     0.707107     0.707107     0.000000     0.000000     0.000000     0.000000
    6    -1.000000    90.000000     0.000000     1.000000     0.000000     0.000000     0.000000     0.000000
    7     1.000000   180.000000     1.000000     0.000000     0.000000     0.000000     0.000000     0.000000
    8     1.000000   120.000000     0.577350     0.577350     0.577350     0.000000     0.000000     0.000000
    9     1.000000   120.000000    -0.577350     0.577350     0.577350     0.000000     0.000000     0.000000
   10    -1.000000    90.000000     1.000000     0.000000     0.000000     0.000000     0.000000     0.000000
   11    -1.000000    90.000000     0.000000     0.000000     1.000000     0.000000     0.000000     0.000000
   12    -1.000000   180.000000     0.707107     0.000000    -0.707107     0.000000     0.000000     0.000000
   13     1.000000   120.000000     0.577350    -0.577350    -0.577350     0.000000     0.000000     0.000000
   14     1.000000   120.000000     0.577350    -0.577350     0.577350     0.000000     0.000000     0.000000
   15     1.000000   180.000000     0.000000     0.000000     1.000000     0.000000     0.000000     0.000000
   16    -1.000000    90.000000     0.000000    -1.000000     0.000000     0.000000     0.000000     0.000000
   17    -1.000000   180.000000     0.000000    -0.707107     0.707107     0.000000     0.000000     0.000000
   18    -1.000000    90.000000     0.000000     0.000000    -1.000000     0.000000     0.000000     0.000000
   19     1.000000   120.000000    -0.577350    -0.577350    -0.577350     0.000000     0.000000     0.000000
   20     1.000000   180.000000     0.000000     1.000000     0.000000     0.000000     0.000000     0.000000
   21     1.000000   120.000000    -0.577350     0.577350    -0.577350     0.000000     0.000000     0.000000
   22    -1.000000   180.000000     0.707107    -0.707107     0.000000     0.000000     0.000000     0.000000
   23    -1.000000   180.000000     0.000000     0.707107     0.707107     0.000000     0.000000     0.000000
   24    -1.000000   180.000000     0.707107     0.000000     0.707107     0.000000     0.000000     0.000000

 Subroutine IBZKPT_HF returns following result:

 Found    331 k-points in 1st BZ
 the following    331 k-points will be used (e.g. in the exchange kernel)
 Following reciprocal coordinates:   # in IRBZ
  0.000000  0.000000  0.000000       1 t-inv F
  0.166667  0.000000  0.000000       2 t-inv F
  0.333333  0.000000  0.000000       3 t-inv F
  0.500000  0.000000  0.000000       4 t-inv F
  0.166667  0.166667  0.000000       5 t-inv F
  0.333333  0.166667  0.000000       6 t-inv F
  0.500000  0.166667  0.000000       7 t-inv F
 -0.333333  0.166667  0.000000       8 t-inv F
 -0.166667  0.166667  0.000000       9 t-inv F
  0.333333  0.333333  0.000000      10 t-inv F
  0.500000  0.333333  0.000000      11 t-inv F
 -0.333333  0.333333  0.000000      12 t-inv F
  0.500000  0.500000  0.000000      13 t-inv F
  0.500000  0.333333  0.166667      14 t-inv F
 -0.333333  0.333333  0.166667      15 t-inv F
 -0.333333  0.500000  0.166667      16 t-inv F
  0.000000  0.000000  0.000000      17 t-inv F
  0.025000  0.000000  0.025000      18 t-inv F
  0.050000  0.000000  0.050000      19 t-inv F
  0.075000  0.000000  0.075000      20 t-inv F
  0.100000  0.000000  0.100000      21 t-inv F
  0.125000  0.000000  0.125000      22 t-inv F
  0.150000  0.000000  0.150000      23 t-inv F
  0.175000  0.000000  0.175000      24 t-inv F
  0.200000  0.000000  0.200000      25 t-inv F
  0.225000  0.000000  0.225000      26 t-inv F
  0.250000  0.000000  0.250000      27 t-inv F
  0.275000  0.000000  0.275000      28 t-inv F
  0.300000  0.000000  0.300000      29 t-inv F
  0.325000  0.000000  0.325000      30 t-inv F
  0.350000  0.000000  0.350000      31 t-inv F
  0.375000  0.000000  0.375000      32 t-inv F
  0.400000  0.000000  0.400000      33 t-inv F
  0.425000  0.000000  0.425000      34 t-inv F
  0.450000  0.000000  0.450000      35 t-inv F
  0.475000  0.000000  0.475000      36 t-inv F
  0.500000  0.000000  0.500000      37 t-inv F
  0.500000  0.025000  0.525000      38 t-inv F
  0.500000  0.050000  0.550000      39 t-inv F
  0.500000  0.075000  0.575000      40 t-inv F
  0.500000  0.100000  0.600000      41 t-inv F
  0.500000  0.125000  0.625000      42 t-inv F
  0.500000  0.150000  0.650000      43 t-inv F
  0.500000  0.175000  0.675000      44 t-inv F
  0.500000  0.200000  0.700000      45 t-inv F
  0.500000  0.225000  0.725000      46 t-inv F
  0.500000  0.250000  0.750000      47 t-inv F
  0.475000  0.275000  0.750000      48 t-inv F
  0.450000  0.300000  0.750000      49 t-inv F
  0.425000  0.325000  0.750000      50 t-inv F
  0.400000  0.350000  0.750000      51 t-inv F
  0.375000  0.375000  0.750000      52 t-inv F
  0.360000  0.360000  0.720000      53 t-inv F
  0.345000  0.345000  0.690000      54 t-inv F
  0.330000  0.330000  0.660000      55 t-inv F
  0.315000  0.315000  0.630000      56 t-inv F
  0.300000  0.300000  0.600000      57 t-inv F
  0.285000  0.285000  0.570000      58 t-inv F
  0.270000  0.270000  0.540000      59 t-inv F
  0.255000  0.255000  0.510000      60 t-inv F
[...]
  0.166667  0.500000  0.166667       8 t-inv T
 -0.500000 -0.333333 -0.333333       8 t-inv T
  0.333333  0.000000 -0.166667       8 t-inv T
 -0.500000 -0.333333  0.000000      11 t-inv T
  0.000000 -0.500000 -0.333333      11 t-inv T
 -0.333333  0.000000 -0.500000      11 t-inv T
  0.333333  0.333333 -0.166667      11 t-inv T
  0.500000  0.166667  0.500000      11 t-inv T
 -0.333333 -0.500000  0.000000      11 t-inv T
 -0.166667  0.333333  0.333333      11 t-inv T
  0.500000  0.500000  0.166667      11 t-inv T
  0.000000 -0.333333 -0.500000      11 t-inv T
  0.333333 -0.166667  0.333333      11 t-inv T
  0.166667  0.500000  0.500000      11 t-inv T
 -0.500000  0.000000 -0.333333      11 t-inv T

 I would recommend the setting:
   dimension x,y,z NGX =    33 NGY =   33 NGZ =   33
 SYSTEM =  Name
 POSCAR =  CdTe (ICSD, 295K, Rabadanov 2001)

 Startparameter for this run:
   NWRITE =      2    write-flag & timer
   PREC   = accura    normal or accurate (medium, high low for compatibility)
   ISTART =      0    job   : 0-new  1-cont  2-samecut
   ICHARG =      2    charge: 1-file 2-atom 10-const
   ISPIN  =      1    spin polarized calculation?
   LNONCOLLINEAR =      F non collinear calculations
   LSORBIT =      F    spin-orbit coupling
   INIWAV =      1    electr: 0-lowe 1-rand  2-diag
   LASPH  =      F    aspherical Exc in radial PAW
   METAGGA=      F    non-selfconsistent MetaGGA calc.

 Electronic Relaxation 1
   ENCUT  =  500.0 eV  36.75 Ry    6.06 a.u.   8.36  8.36  8.36*2*pi/ulx,y,z
   ENINI  =  500.0     initial cutoff
   ENAUG  =  456.1 eV  augmentation charge cutoff
   NELM   =     60;   NELMIN=  5; NELMDL=  0     # of ELM steps
   EDIFF  = 0.1E-05   stopping-criterion for ELM
   LREAL  =      F    real-space projection
   NLSPLINE    = F    spline interpolate recip. space projectors
   LCOMPAT=      F    compatible to vasp.4.4
   GGA_COMPAT  = T    GGA compatible to vasp.4.4-vasp.4.6
   LMAXPAW     = -100 max onsite density
   LMAXMIX     =    2 max onsite mixed and CHGCAR
   VOSKOWN=      0    Vosko Wilk Nusair interpolation
   ROPT   =    0.00000   0.00000
 Ionic relaxation
   EDIFFG = -.5E-02   stopping-criterion for IOM
   NSW    =      1    number of steps for IOM
   NBLOCK =      1;   KBLOCK =      1    inner block; outer block
   IBRION =      2    ionic relax: 0-MD 1-quasi-New 2-CG
   NFREE  =      1    steps in history (QN), initial steepest desc. (CG)
   ISIF   =      3    stress and relaxation
   IWAVPR =     11    prediction:  0-non 1-charg 2-wave 3-comb
   ISYM   =      2    0-nonsym 1-usesym 2-fastsym
   LCORR  =      T    Harris-Foulkes like correction to forces

   POTIM  = 0.5000    time-step for ionic-motion
   TEIN   =    0.0    initial temperature
   TEBEG  =    0.0;   TEEND  =   0.0 temperature during run
   SMASS  =  -3.00    Nose mass-parameter (am)
   estimated Nose-frequenzy (Omega)   =  0.10E-29 period in steps =****** mass=  -0.480E-27a.u.
   SCALEE = 1.0000    scale energy and forces
   NPACO  =    256;   APACO  = 16.0  distance and # of slots for P.C.
[...]
   0.50000000  0.07500000  0.57499999       0.000
   0.50000000  0.09999999  0.60000002       0.000
   0.50000000  0.12499999  0.62500000       0.000
   0.50000000  0.14999999  0.64999998       0.000
   0.50000000  0.17500000  0.67500001       0.000
   0.50000000  0.19999999  0.69999999       0.000
   0.50000000  0.22499998  0.72499996       0.000
   0.50000000  0.24999999  0.75000000       0.000
   0.47499999  0.27500001  0.75000000       0.000
   0.44999999  0.30000001  0.75000000       0.000
   0.42500001  0.32499999  0.75000000       0.000
   0.40000001  0.34999999  0.75000000       0.000
   0.37500000  0.37500000  0.75000000       0.000
   0.36000001  0.36000001  0.72000003       0.000
   0.34500000  0.34500000  0.69000000       0.000
   0.33000001  0.33000001  0.66000003       0.000
   0.31500000  0.31500000  0.63000000       0.000
   0.30000001  0.30000001  0.60000002       0.000
   0.28500003  0.28500003  0.57000005       0.000
   0.27000001  0.27000001  0.54000002       0.000
   0.25500000  0.25500000  0.50999999       0.000
[...]
   0.50000000  0.32499999  0.67500001       0.000
   0.50000000  0.34999999  0.64999998       0.000
   0.50000000  0.37500000  0.62500000       0.000
   0.50000000  0.39999998  0.60000002       0.000
   0.50000000  0.42500001  0.57499999       0.000
   0.50000000  0.44999999  0.55000001       0.000
   0.50000000  0.47499996  0.52500004       0.000
   0.50000000  0.50000000  0.50000000       0.000
   0.48437500  0.48437500  0.53125000       0.000
   0.46875000  0.46875000  0.56250000       0.000
   0.45312500  0.45312500  0.59375000       0.000
   0.43750000  0.43750000  0.62500000       0.000
   0.42187500  0.42187500  0.65625000       0.000
   0.40625000  0.40625000  0.68750000       0.000
   0.39062500  0.39062500  0.71875000       0.000

 position of ions in fractional coordinates (direct lattice)
   0.00000000  0.00000000  0.00000000
   0.25000000  0.25000000  0.25000000

 position of ions in cartesian coordinates  (Angst):
   0.00000000  0.00000000  0.00000000
   1.62067500  1.62067500 -1.62067500

 k-point  1 :   0.0000 0.0000 0.0000  plane waves:    1759
 k-point  2 :   0.1667 0.0000 0.0000  plane waves:    1747
 k-point  3 :   0.3333 0.0000 0.0000  plane waves:    1730
 k-point  4 :   0.5000 0.0000 0.0000  plane waves:    1718
 k-point  5 :   0.1667 0.1667 0.0000  plane waves:    1736
 k-point  6 :   0.3333 0.1667 0.0000  plane waves:    1729
 k-point  7 :   0.5000 0.1667 0.0000  plane waves:    1739
 k-point  8 :  -0.3333 0.1667 0.0000  plane waves:    1732
 k-point  9 :  -0.1667 0.1667 0.0000  plane waves:    1735
 k-point 10 :   0.3333 0.3333 0.0000  plane waves:    1728
 k-point 11 :   0.5000 0.3333 0.0000  plane waves:    1723
 k-point 12 :  -0.3333 0.3333 0.0000  plane waves:    1726
 k-point 13 :   0.5000 0.5000 0.0000  plane waves:    1724
 k-point 14 :   0.5000 0.3333 0.1667  plane waves:    1724
 k-point 15 :  -0.3333 0.3333 0.1667  plane waves:    1726
 k-point 16 :  -0.3333 0.5000 0.1667  plane waves:    1722
 k-point 17 :   0.0000 0.0000 0.0000  plane waves:    1759
 k-point 18 :   0.0250 0.0000 0.0250  plane waves:    1755
 k-point 19 :   0.0500 0.0000 0.0500  plane waves:    1763
 k-point 20 :   0.0750 0.0000 0.0750  plane waves:    1747
 k-point 21 :   0.1000 0.0000 0.1000  plane waves:    1744
 k-point 22 :   0.1250 0.0000 0.1250  plane waves:    1740
 k-point 23 :   0.1500 0.0000 0.1500  plane waves:    1748
 k-point 24 :   0.1750 0.0000 0.1750  plane waves:    1744
 k-point 25 :   0.2000 0.0000 0.2000  plane waves:    1736
 k-point 26 :   0.2250 0.0000 0.2250  plane waves:    1736
 k-point 27 :   0.2500 0.0000 0.2500  plane waves:    1716
 k-point 28 :   0.2750 0.0000 0.2750  plane waves:    1724
 k-point 29 :   0.3000 0.0000 0.3000  plane waves:    1720
 k-point 30 :   0.3250 0.0000 0.3250  plane waves:    1728
 k-point 31 :   0.3500 0.0000 0.3500  plane waves:    1728
 k-point 32 :   0.3750 0.0000 0.3750  plane waves:    1728
 k-point 33 :   0.4000 0.0000 0.4000  plane waves:    1736
 k-point 34 :   0.4250 0.0000 0.4250  plane waves:    1728
 k-point 35 :   0.4500 0.0000 0.4500  plane waves:    1732
 k-point 36 :   0.4750 0.0000 0.4750  plane waves:    1724
 k-point 37 :   0.5000 0.0000 0.5000  plane waves:    1724
 k-point 38 :   0.5000 0.0250 0.5250  plane waves:    1724
 k-point 39 :   0.5000 0.0500 0.5500  plane waves:    1724
 k-point 40 :   0.5000 0.0750 0.5750  plane waves:    1720
 k-point 41 :   0.5000 0.1000 0.6000  plane waves:    1720
 k-point 42 :   0.5000 0.1250 0.6250  plane waves:    1722
 k-point 43 :   0.5000 0.1500 0.6500  plane waves:    1728
 k-point 44 :   0.5000 0.1750 0.6750  plane waves:    1724
 k-point 45 :   0.5000 0.2000 0.7000  plane waves:    1732
 k-point 46 :   0.5000 0.2250 0.7250  plane waves:    1730
 k-point 47 :   0.5000 0.2500 0.7500  plane waves:    1744
 k-point 48 :   0.4750 0.2750 0.7500  plane waves:    1732
 k-point 49 :   0.4500 0.3000 0.7500  plane waves:    1728
 k-point 50 :   0.4250 0.3250 0.7500  plane waves:    1726
 k-point 51 :   0.4000 0.3500 0.7500  plane waves:    1726
 k-point 52 :   0.3750 0.3750 0.7500  plane waves:    1730
 k-point 53 :   0.3600 0.3600 0.7200  plane waves:    1730
 k-point 54 :   0.3450 0.3450 0.6900  plane waves:    1728
 k-point 55 :   0.3300 0.3300 0.6600  plane waves:    1724
 k-point 56 :   0.3150 0.3150 0.6300  plane waves:    1724
 k-point 57 :   0.3000 0.3000 0.6000  plane waves:    1724
 k-point 58 :   0.2850 0.2850 0.5700  plane waves:    1738
 k-point 59 :   0.2700 0.2700 0.5400  plane waves:    1730
 k-point 60 :   0.2550 0.2550 0.5100  plane waves:    1742
[...]
 k-point 85 :   0.1667 0.1667 0.1667  plane waves:    1747
 k-point 86 :   0.1875 0.1875 0.1875  plane waves:    1754
 k-point 87 :   0.2083 0.2083 0.2083  plane waves:    1754
 k-point 88 :   0.2292 0.2292 0.2292  plane waves:    1745
 k-point 89 :   0.2500 0.2500 0.2500  plane waves:    1751
 k-point 90 :   0.2708 0.2708 0.2708  plane waves:    1736
 k-point 91 :   0.2917 0.2917 0.2917  plane waves:    1724
 k-point 92 :   0.3125 0.3125 0.3125  plane waves:    1730
 k-point 93 :   0.3333 0.3333 0.3333  plane waves:    1730
 k-point 94 :   0.3542 0.3542 0.3542  plane waves:    1727
 k-point 95 :   0.3750 0.3750 0.3750  plane waves:    1727
 k-point 96 :   0.3958 0.3958 0.3958  plane waves:    1727
 k-point 97 :   0.4167 0.4167 0.4167  plane waves:    1727
 k-point 98 :   0.4375 0.4375 0.4375  plane waves:    1724
 k-point 99 :   0.4583 0.4583 0.4583  plane waves:    1718
 k-point ** :   0.4792 0.4792 0.4792  plane waves:    1718
 k-point ** :   0.5000 0.5000 0.5000  plane waves:    1718
 k-point ** :   0.5156 0.4688 0.5156  plane waves:    1727
 k-point ** :   0.5312 0.4375 0.5312  plane waves:    1727
 k-point ** :   0.5469 0.4062 0.5469  plane waves:    1738
 k-point ** :   0.5625 0.3750 0.5625  plane waves:    1731
 k-point ** :   0.5781 0.3438 0.5781  plane waves:    1729
 k-point ** :   0.5938 0.3125 0.5938  plane waves:    1726
 k-point ** :   0.6094 0.2812 0.6094  plane waves:    1730
 k-point ** :   0.6250 0.2500 0.6250  plane waves:    1730
 k-point ** :   0.6000 0.2500 0.6500  plane waves:    1726
 k-point ** :   0.5750 0.2500 0.6750  plane waves:    1726
 k-point ** :   0.5500 0.2500 0.7000  plane waves:    1728
 k-point ** :   0.5250 0.2500 0.7250  plane waves:    1732
 k-point ** :   0.5000 0.2500 0.7500  plane waves:    1744
 k-point ** :   0.5000 0.2750 0.7250  plane waves:    1728
 k-point ** :   0.5000 0.3000 0.7000  plane waves:    1724
 k-point ** :   0.5000 0.3250 0.6750  plane waves:    1722
 k-point ** :   0.5000 0.3500 0.6500  plane waves:    1724
 k-point ** :   0.5000 0.3750 0.6250  plane waves:    1730
 k-point ** :   0.5000 0.4000 0.6000  plane waves:    1738
 k-point ** :   0.5000 0.4250 0.5750  plane waves:    1738
 k-point ** :   0.5000 0.4500 0.5500  plane waves:    1732
 k-point ** :   0.5000 0.4750 0.5250  plane waves:    1722
 k-point ** :   0.5000 0.5000 0.5000  plane waves:    1718
 k-point ** :   0.4844 0.4844 0.5312  plane waves:    1727
 k-point ** :   0.4688 0.4688 0.5625  plane waves:    1727
 k-point ** :   0.4531 0.4531 0.5938  plane waves:    1738
 k-point ** :   0.4375 0.4375 0.6250  plane waves:    1731
 k-point ** :   0.4219 0.4219 0.6562  plane waves:    1729
 k-point ** :   0.4062 0.4062 0.6875  plane waves:    1726
 k-point ** :   0.3906 0.3906 0.7188  plane waves:    1730

 maximum and minimum number of plane-waves per node :      1763     1716

 maximum number of plane-waves:      1763
 maximum index in each direction:
   IXMAX=    8   IYMAX=    8   IZMAX=    8
   IXMIN=   -8   IYMIN=   -8   IZMIN=   -9

 NGX is ok and might be reduce to  34
 NGY is ok and might be reduce to  34
 NGZ is ok and might be reduce to  36

 serial   3D FFT for wavefunctions
 parallel 3D FFT for charge:
    minimum data exchange during FFTs selected (reduces bandwidth)

 FFT grid for exact exchange (Hartree Fock)
  NGX = 20; NGY = 20; NGZ = 20

 Radii for the augmentation spheres in the non-local exchange
 for species   1 augmentation radius   1.444 (default was   1.070)
       energy cutoff for augmentation   2000.0
 for species   2 augmentation radius   1.606 (default was   1.190)
       energy cutoff for augmentation   2000.0

 Broyden mixing: mesh for mixing (old mesh)
   NGX = 17   NGY = 17   NGZ = 17
  (NGX  = 72   NGY  = 72   NGZ  = 72)
  gives a total of   4913 points

 initial charge density was supplied:
 charge density of overlapping atoms calculated
 number of electron      18.0000000 magnetization
 charge density for first step will be calculated from the start-wavefunctions

 Maximum index for augmentation-charges         9730 (set IRDMAX)

 First call to EWALD:  gamma=   0.434
 Maximum number of real-space cells 3x 3x 3
 Maximum number of reciprocal cells 3x 3x 3

 FEWALD executed in parallel

----------------------------------------- Iteration    1(   1)  ---------------------------------------

 eigenvalue-minimisations  :  5320
 total energy-change (2. order) : 0.6385061E+03  (-0.4341250E+04)
 number of electron      18.0000000 magnetization
 augmentation part       18.0000000 magnetization

 Free energy of the ion-electron system (eV)
  alpha Z        PSCENC =        50.17222034
  Ewald energy   TEWEN  =     -1044.83138452
  -Hartree energ DENC   =      -510.12304479
  -exchange      EXHF   =         0.00000000
  -V(xc)+E(xc)   XCENC  =       -19.76180362
  PAW double counting   =      1401.07110985    -1338.68056147
  entropy T*S    EENTRO =        -0.00009815
  eigenvalues    EBANDS =       586.36160124
  atomic energy  EATOM  =      1514.29801353
  free energy    TOTEN  =       638.50605240 eV

  energy without entropy =      638.50615055  energy(sigma->0) =      638.50610148

[...]

 eigenvalue-minimisations  :  5456
 total energy-change (2. order) :-0.5440286E+03  (-0.5042271E+03)
 number of electron      18.0000000 magnetization
 augmentation part       18.0000000 magnetization

[...]

----------------------------------------- Iteration    1(  17)  ---------------------------------------

 eigenvalue-minimisations  :     0
 total energy-change (2. order) :-0.3148755E-06  (-0.1147953E-06)
 number of electron      17.9999996 magnetization
 augmentation part        4.6473289 magnetization

 Free energy of the ion-electron system (eV)
  alpha Z        PSCENC =        50.17222034
  Ewald energy   TEWEN  =     -1044.83138452
  -Hartree energ DENC   =      -506.36508794
  -exchange      EXHF   =        34.61265375
  -V(xc)+E(xc)   XCENC  =       -19.62824896
  PAW double counting   =      3343.55999689    -3280.15113004
  entropy T*S    EENTRO =        -0.00000000
  eigenvalues    EBANDS =       -97.69329231
  atomic energy  EATOM  =      1514.29801353
  free energy    TOTEN  =        -6.02625926 eV

  energy without entropy =       -6.02625926  energy(sigma->0) =       -6.02625926

  average scaling for gradient   0.7407

 the core state eigenenergies are
   1-  1s    -32.6550  2s    -32.5023  2p    -32.5023  3s    -32.5023  3p    -32.5023
       3d    -32.5023  4s    -32.5023  4p    -32.5023
   2-  1s    -87.5180  2s    -87.7000  2p    -87.7000  3s    -87.7000  3p    -87.7000
       3d    -87.7000  4s    -87.7000  4p    -87.7000  4d    -87.7000

 E-fermi :   1.8761     XC(G=0):  -7.1635     alpha+bet : -7.4227

 k-point     1 :       0.0000    0.0000    0.0000
  band No.  band energies     occupation
      1     -10.3103      2.00000
      2      -7.7526      2.00000
      3      -7.7526      2.00000
      4      -7.7526      2.00000
      5      -7.4890      2.00000
      6      -7.4890      2.00000
      7       1.8315      2.00000
      8       1.8315      2.00000
      9       1.8315      2.00000
     10       3.3757      0.00000
     11       7.3030      0.00000
     12       7.3030      0.00000
     13       7.3030      0.00000
     14      10.3353      0.00000
     15      12.1719      0.00000
     16      12.1720      0.00000

[...]

 k-point   131 :       0.3906    0.3906    0.7188
  band No.  band energies     occupation
      1      -9.8290      2.00000
      2      -7.6438      2.00000
      3      -7.6249      2.00000
      4      -7.5264      2.00000
      5      -7.4793      2.00000
      6      -6.8367      2.00000
      7      -2.6167      2.00000
      8      -0.9185      2.00000
      9       0.2724      2.00000
     10       5.5662      0.00000
     11       7.5486      0.00000
     12       9.7630      0.00000
     13      10.0199      0.00000
     14      10.6799      0.00000
     15      12.3177      0.00000
     16      15.0882      0.00000

 soft charge-density along one line, spin component           1
         0         1         2         3         4         5         6         7         8         9
 total charge-density along one line

------------------------ aborting loop because EDIFF is reached ----------------------------------------

 total charge

# of ion     s       p       d       tot
  1        0.442   0.313   9.574  10.329
  2        1.309   2.230   0.020   3.558
tot        1.751   2.542   9.594  13.887

  FORCE on cell =-STRESS in cart. coord.  units (eV):
  Direction    XX          YY          ZZ          XY          YZ          ZX
  Alpha Z    50.17222    50.17222    50.17222
  Ewald    -348.27726  -348.27726  -348.27726     0.00000     0.00000    -0.00000
  Hartree   168.78888   168.78888   168.78888     0.00000    -0.00000    -0.00000
  E(xc)     -66.47796   -66.47796   -66.47796    -0.00000     0.00000     0.00000
  Local     -16.90447   -16.90447   -16.90447     0.00001    -0.00001    -0.00001
  n-local    62.83429    67.63110    66.80785    -1.73818    -2.78650    -1.16096
  augment    -0.14338    -0.14338    -0.14338    -0.00001     0.00001     0.00001
  Kinetic   200.92917   204.03262   204.22504    -1.61381    -2.87093    -1.21958
  Fock            NaN         NaN         NaN         NaN         NaN         NaN
  Total           NaN         NaN         NaN         NaN         NaN         NaN
  in kB           NaN         NaN         NaN         NaN         NaN         NaN

 VOLUME and BASIS-vectors are now :
  energy-cutoff  :      500.00
  volume of cell :       68.11
      direct lattice vectors                 reciprocal lattice vectors
     3.241350000  3.241350000  0.000000000     0.154256714  0.154256714  0.154256714
     3.241350000  0.000000000 -3.241350000     0.154256714 -0.154256714 -0.154256714
     0.000000000  3.241350000 -3.241350000    -0.154256714  0.154256714 -0.154256714

  length of vectors
     4.583961130  4.583961130  4.583961130     0.267180466  0.267180466  0.267180466

 FORCES acting on ions:
    Electron-Ion                     Ewald-Force                    Non-Local-Force
   -.125E-07 -.118E-07 0.118E-07   -.153E-13 -.130E-13 0.167E-13   0.607E-17 0.104E-16 -.104E-16
   0.182E-06 0.188E-06 -.188E-06   0.145E-13 0.128E-13 -.169E-13   -.800E-16 -.278E-16 0.833E-16
   -.145E-05 -.145E-05 0.145E-05   -.840E-15 -.129E-15 -.231E-15   -.739E-16 -.173E-16 0.729E-16

 POSITION                                       TOTAL-FORCE (eV/Angst)
      0.00000      0.00000      0.00000              NaN           NaN           NaN
      1.62068      1.62068     -1.62068              NaN           NaN           NaN
    total drift:                                     NaN           NaN           NaN

  FREE ENERGIE OF THE ION-ELECTRON SYSTEM (eV)
  free  energy   TOTEN  =        -6.02625926 eV

  energy  without entropy=       -6.02625926  energy(sigma->0) =       -6.02625926

 reached required accuracy - stopping structural energy minimisation
 writing wavefunctions

 total charge

# of ion     s       p       d       tot
  1        0.442   0.313   9.574  10.329
  2        1.309   2.230   0.020   3.558
tot        1.751   2.542   9.594  13.887