 vasp.5.4.1 24Jun15 (build Nov 25 2015 16:01:35) complex

 executed on         CrayXC-Intel date 2016.05.09  11:25:05

 INCAR:
 POTCAR:    PAW_PBE Cd 06Sep2000
 POTCAR:    PAW_PBE Te 08Apr2002

 POTCAR:    PAW_PBE Cd 06Sep2000
   VRHFIN =Cd : s2 d10

   TITEL  = PAW_PBE Cd 06Sep2000
   POMASS =  112.411; ZVAL   =   12.000    mass and valenz
   ENMAX  =  274.336; ENMIN  =  205.752 eV

 POTCAR:    PAW_PBE Te 08Apr2002
   VRHFIN =Te: s2p4

   TITEL  = PAW_PBE Te 08Apr2002
   POMASS =  127.600; ZVAL   =    6.000    mass and valenz
   ENMAX  =  174.982; ENMIN  =  131.236 eV

  PAW_PBE Cd 06Sep2000                  :
  PAW_PBE Te 08Apr2002                  :

 POSCAR: CdTe (ICSD, 295K, Rabadanov 2001)
  positions in direct lattice
  velocities in cartesian coordinates
 exchange correlation table for  LEXCH =        8
   RHO(1)=    0.500       N(1)  =     2000
   RHO(2)=  100.500       N(2)  =     4000

 ion  position               nearest neighbor table
   1  0.000  0.000  0.000-   2 2.81   2 2.81   2 2.81   2 2.81
   2  0.250  0.250  0.250-   1 2.81   1 2.81   1 2.81   1 2.81

  LATTYP: Found a face centered cubic cell.
 ALAT       =     6.4827000000

  Lattice vectors:

 A1 = (   3.2413500000,   3.2413500000,   0.0000000000)
 A2 = (   3.2413500000,   0.0000000000,  -3.2413500000)
 A3 = (   0.0000000000,   3.2413500000,  -3.2413500000)

Analysis of symmetry for initial positions (statically):
 Subroutine PRICEL returns:
 Original cell was already a primitive cell.

 Routine SETGRP: Setting up the symmetry group for a
 face centered cubic supercell.

 Subroutine GETGRP returns: Found 24 space group operations
 (whereof 24 operations were pure point group operations)
 out of a pool of 48 trial point group operations.

The static configuration has the point symmetry T_d .

Analysis of symmetry for dynamics (positions and initial velocities):
 Subroutine PRICEL returns:
 Original cell was already a primitive cell.

 Routine SETGRP: Setting up the symmetry group for a
 face centered cubic supercell.

 Subroutine GETGRP returns: Found 24 space group operations
 (whereof 24 operations were pure point group operations)
 out of a pool of 48 trial point group operations.

The dynamic configuration has the point symmetry T_d .

 Subroutine INISYM returns: Found 24 space group operations
 (whereof 24 operations are pure point group operations),
 and found     1 'primitive' translations

 KPOINTS: Automatically generated mesh SCF: 16 ste
  k-points in reciprocal lattice
Space group operators:
 irot       det(A)        alpha          n_x          n_y          n_z        tau_x        tau_y        tau_z
    1     1.000000     0.000000     1.000000     0.000000     0.000000     0.000000     0.000000     0.000000
    2     1.000000   120.000000    -0.577350    -0.577350     0.577350     0.000000     0.000000     0.000000
    3     1.000000   120.000000     0.577350     0.577350    -0.577350     0.000000     0.000000     0.000000
    4    -1.000000    90.000000    -1.000000     0.000000     0.000000     0.000000     0.000000     0.000000
    5    -1.000000   180.000000     0.707107     0.707107     0.000000     0.000000     0.000000     0.000000
    6    -1.000000    90.000000     0.000000     1.000000     0.000000     0.000000     0.000000     0.000000
    7     1.000000   180.000000     1.000000     0.000000     0.000000     0.000000     0.000000     0.000000
    8     1.000000   120.000000     0.577350     0.577350     0.577350     0.000000     0.000000     0.000000
    9     1.000000   120.000000    -0.577350     0.577350     0.577350     0.000000     0.000000     0.000000
   10    -1.000000    90.000000     1.000000     0.000000     0.000000     0.000000     0.000000     0.000000
   11    -1.000000    90.000000     0.000000     0.000000     1.000000     0.000000     0.000000     0.000000
   12    -1.000000   180.000000     0.707107     0.000000    -0.707107     0.000000     0.000000     0.000000
   13     1.000000   120.000000     0.577350    -0.577350    -0.577350     0.000000     0.000000     0.000000
   14     1.000000   120.000000     0.577350    -0.577350     0.577350     0.000000     0.000000     0.000000
   15     1.000000   180.000000     0.000000     0.000000     1.000000     0.000000     0.000000     0.000000
   16    -1.000000    90.000000     0.000000    -1.000000     0.000000     0.000000     0.000000     0.000000
   17    -1.000000   180.000000     0.000000    -0.707107     0.707107     0.000000     0.000000     0.000000
   18    -1.000000    90.000000     0.000000     0.000000    -1.000000     0.000000     0.000000     0.000000
   19     1.000000   120.000000    -0.577350    -0.577350    -0.577350     0.000000     0.000000     0.000000
   20     1.000000   180.000000     0.000000     1.000000     0.000000     0.000000     0.000000     0.000000
   21     1.000000   120.000000    -0.577350     0.577350    -0.577350     0.000000     0.000000     0.000000
   22    -1.000000   180.000000     0.707107    -0.707107     0.000000     0.000000     0.000000     0.000000
   23    -1.000000   180.000000     0.000000     0.707107     0.707107     0.000000     0.000000     0.000000
   24    -1.000000   180.000000     0.707107     0.000000     0.707107     0.000000     0.000000     0.000000

 Subroutine IBZKPT_HF returns following result:

 Found   1212 k-points in 1st BZ
 the following   1212 k-points will be used (e.g. in the exchange kernel)
 Following reciprocal coordinates:   # in IRBZ
  0.000000  0.000000  0.000000    0.00462963   1 t-inv F
  0.166667  0.000000  0.000000    0.00462963   2 t-inv F
  0.333333  0.000000  0.000000    0.00462963   3 t-inv F
  0.500000  0.000000  0.000000    0.00462963   4 t-inv F
  0.166667  0.166667  0.000000    0.00462963   5 t-inv F
  0.333333  0.166667  0.000000    0.00462963   6 t-inv F
  0.500000  0.166667  0.000000    0.00462963   7 t-inv F
 -0.333333  0.166667  0.000000    0.00462963   8 t-inv F
 -0.166667  0.166667  0.000000    0.00462963   9 t-inv F
  0.333333  0.333333  0.000000    0.00462963  10 t-inv F
  0.500000  0.333333  0.000000    0.00462963  11 t-inv F
 -0.333333  0.333333  0.000000    0.00462963  12 t-inv F
  0.500000  0.500000  0.000000    0.00462963  13 t-inv F
  0.500000  0.333333  0.166667    0.00462963  14 t-inv F
 -0.333333  0.333333  0.166667    0.00462963  15 t-inv F
 -0.333333  0.500000  0.166667    0.00462963  16 t-inv F
  0.000000  0.000000  0.000000    0.00000000  17 t-inv F
  0.002101  0.000000  0.002101    0.00000000  18 t-inv F
  0.004202  0.000000  0.004202    0.00000000  19 t-inv F
  0.006303  0.000000  0.006303    0.00000000  20 t-inv F
  0.008403  0.000000  0.008403    0.00000000  21 t-inv F
  0.010504  0.000000  0.010504    0.00000000  22 t-inv F
  0.012605  0.000000  0.012605    0.00000000  23 t-inv F
  0.014706  0.000000  0.014706    0.00000000  24 t-inv F
  0.016807  0.000000  0.016807    0.00000000  25 t-inv F
  0.018908  0.000000  0.018908    0.00000000  26 t-inv F
  0.021008  0.000000  0.021008    0.00000000  27 t-inv F
  0.023109  0.000000  0.023109    0.00000000  28 t-inv F
  0.025210  0.000000  0.025210    0.00000000  29 t-inv F
  0.027311  0.000000  0.027311    0.00000000  30 t-inv F
  0.029412  0.000000  0.029412    0.00000000  31 t-inv F
  0.031513  0.000000  0.031513    0.00000000  32 t-inv F
  0.033613  0.000000  0.033613    0.00000000  33 t-inv F
  0.035714  0.000000  0.035714    0.00000000  34 t-inv F
  0.037815  0.000000  0.037815    0.00000000  35 t-inv F
  0.039916  0.000000  0.039916    0.00000000  36 t-inv F
  0.042017  0.000000  0.042017    0.00000000  37 t-inv F
  0.044118  0.000000  0.044118    0.00000000  38 t-inv F
  0.046218  0.000000  0.046218    0.00000000  39 t-inv F
  0.048319  0.000000  0.048319    0.00000000  40 t-inv F
  0.050420  0.000000  0.050420    0.00000000  41 t-inv F
  0.052521  0.000000  0.052521    0.00000000  42 t-inv F
  0.054622  0.000000  0.054622    0.00000000  43 t-inv F
  0.056723  0.000000  0.056723    0.00000000  44 t-inv F
  0.058824  0.000000  0.058824    0.00000000  45 t-inv F
  0.060924  0.000000  0.060924    0.00000000  46 t-inv F
  0.063025  0.000000  0.063025    0.00000000  47 t-inv F
  0.065126  0.000000  0.065126    0.00000000  48 t-inv F
  0.067227  0.000000  0.067227    0.00000000  49 t-inv F
  0.069328  0.000000  0.069328    0.00000000  50 t-inv F
  0.071429  0.000000  0.071429    0.00000000  51 t-inv F
  0.073529  0.000000  0.073529    0.00000000  52 t-inv F
  0.075630  0.000000  0.075630    0.00000000  53 t-inv F
  0.077731  0.000000  0.077731    0.00000000  54 t-inv F
  0.079832  0.000000  0.079832    0.00000000  55 t-inv F
  0.081933  0.000000  0.081933    0.00000000  56 t-inv F
  0.084034  0.000000  0.084034    0.00000000  57 t-inv F
  0.086134  0.000000  0.086134    0.00000000  58 t-inv F
  0.088235  0.000000  0.088235    0.00000000  59 t-inv F
  0.090336  0.000000  0.090336    0.00000000  60 t-inv F
[...]
  0.166667  0.500000  0.166667    0.00462963   8 t-inv T
 -0.500000 -0.333333 -0.333333    0.00462963   8 t-inv T
  0.333333  0.000000 -0.166667    0.00462963   8 t-inv T
 -0.500000 -0.333333  0.000000    0.00462963  11 t-inv T
  0.000000 -0.500000 -0.333333    0.00462963  11 t-inv T
 -0.333333  0.000000 -0.500000    0.00462963  11 t-inv T
  0.333333  0.333333 -0.166667    0.00462963  11 t-inv T
  0.500000  0.166667  0.500000    0.00462963  11 t-inv T
 -0.333333 -0.500000  0.000000    0.00462963  11 t-inv T
 -0.166667  0.333333  0.333333    0.00462963  11 t-inv T
  0.500000  0.500000  0.166667    0.00462963  11 t-inv T
  0.000000 -0.333333 -0.500000    0.00462963  11 t-inv T
  0.333333 -0.166667  0.333333    0.00462963  11 t-inv T
  0.166667  0.500000  0.500000    0.00462963  11 t-inv T
 -0.500000  0.000000 -0.333333    0.00462963  11 t-inv T

 I would recommend the setting:
   dimension x,y,z NGX =    33 NGY =   33 NGZ =   33
 SYSTEM =  Name
 POSCAR =  CdTe (ICSD, 295K, Rabadanov 2001)

 Startparameter for this run:
   NWRITE =      2    write-flag & timer
   PREC   = accura    normal or accurate (medium, high low for compatibility)
   ISTART =      0    job   : 0-new  1-cont  2-samecut
   ICHARG =      2    charge: 1-file 2-atom 10-const
   ISPIN  =      1    spin polarized calculation?
   LNONCOLLINEAR =      F non collinear calculations
   LSORBIT =      F    spin-orbit coupling
   INIWAV =      1    electr: 0-lowe 1-rand  2-diag
   LASPH  =      F    aspherical Exc in radial PAW
   METAGGA=      F    non-selfconsistent MetaGGA calc.

 Electronic Relaxation 1
   ENCUT  =  500.0 eV  36.75 Ry    6.06 a.u.   8.36  8.36  8.36*2*pi/ulx,y,z
   ENINI  =  500.0     initial cutoff
   ENAUG  =  456.1 eV  augmentation charge cutoff
   NELM   =     60;   NELMIN=  5; NELMDL=  0     # of ELM steps
   EDIFF  = 0.1E-05   stopping-criterion for ELM
   LREAL  =      F    real-space projection
   NLSPLINE    = F    spline interpolate recip. space projectors
   LCOMPAT=      F    compatible to vasp.4.4
   GGA_COMPAT  = T    GGA compatible to vasp.4.4-vasp.4.6
   LMAXPAW     = -100 max onsite density
   LMAXMIX     =    2 max onsite mixed and CHGCAR
   VOSKOWN=      0    Vosko Wilk Nusair interpolation
   ROPT   =    0.00000   0.00000
 Ionic relaxation
[...]
 k-point 15 :  -0.3333 0.3333 0.1667  plane waves:    1726
 k-point 16 :  -0.3333 0.5000 0.1667  plane waves:    1722
 k-point 17 :   0.0000 0.0000 0.0000  plane waves:    1759
 k-point 18 :   0.0021 0.0000 0.0021  plane waves:    1759
 k-point 19 :   0.0042 0.0000 0.0042  plane waves:    1759
 k-point 20 :   0.0063 0.0000 0.0063  plane waves:    1759
 k-point 21 :   0.0084 0.0000 0.0084  plane waves:    1767
 k-point 22 :   0.0105 0.0000 0.0105  plane waves:    1767
 k-point 23 :   0.0126 0.0000 0.0126  plane waves:    1775
 k-point 24 :   0.0147 0.0000 0.0147  plane waves:    1775
 k-point 25 :   0.0168 0.0000 0.0168  plane waves:    1771
 k-point 26 :   0.0189 0.0000 0.0189  plane waves:    1771
 k-point 27 :   0.0210 0.0000 0.0210  plane waves:    1763
 k-point 28 :   0.0231 0.0000 0.0231  plane waves:    1763
 k-point 29 :   0.0252 0.0000 0.0252  plane waves:    1755
 k-point 30 :   0.0273 0.0000 0.0273  plane waves:    1755
 k-point 31 :   0.0294 0.0000 0.0294  plane waves:    1755
 k-point 32 :   0.0315 0.0000 0.0315  plane waves:    1755
 k-point 33 :   0.0336 0.0000 0.0336  plane waves:    1755
 k-point 34 :   0.0357 0.0000 0.0357  plane waves:    1755
 k-point 35 :   0.0378 0.0000 0.0378  plane waves:    1755
 k-point 36 :   0.0399 0.0000 0.0399  plane waves:    1763
 k-point 37 :   0.0420 0.0000 0.0420  plane waves:    1763
 k-point 38 :   0.0441 0.0000 0.0441  plane waves:    1763
 k-point 39 :   0.0462 0.0000 0.0462  plane waves:    1763
 k-point 40 :   0.0483 0.0000 0.0483  plane waves:    1763
 k-point 41 :   0.0504 0.0000 0.0504  plane waves:    1763
 k-point 42 :   0.0525 0.0000 0.0525  plane waves:    1763
 k-point 43 :   0.0546 0.0000 0.0546  plane waves:    1763
 k-point 44 :   0.0567 0.0000 0.0567  plane waves:    1763
 k-point 45 :   0.0588 0.0000 0.0588  plane waves:    1747
 k-point 46 :   0.0609 0.0000 0.0609  plane waves:    1747
 k-point 47 :   0.0630 0.0000 0.0630  plane waves:    1747
 k-point 48 :   0.0651 0.0000 0.0651  plane waves:    1747
 k-point 49 :   0.0672 0.0000 0.0672  plane waves:    1747
 k-point 50 :   0.0693 0.0000 0.0693  plane waves:    1747
 k-point 51 :   0.0714 0.0000 0.0714  plane waves:    1747
 k-point 52 :   0.0735 0.0000 0.0735  plane waves:    1747
 k-point 53 :   0.0756 0.0000 0.0756  plane waves:    1747
 k-point 54 :   0.0777 0.0000 0.0777  plane waves:    1747
 k-point 55 :   0.0798 0.0000 0.0798  plane waves:    1747
 k-point 56 :   0.0819 0.0000 0.0819  plane waves:    1747
 k-point 57 :   0.0840 0.0000 0.0840  plane waves:    1747
 k-point 58 :   0.0861 0.0000 0.0861  plane waves:    1747
 k-point 59 :   0.0882 0.0000 0.0882  plane waves:    1747
 k-point 60 :   0.0903 0.0000 0.0903  plane waves:    1748
[...]
 k-point 85 :   0.1429 0.0000 0.1429  plane waves:    1748
 k-point 86 :   0.1450 0.0000 0.1450  plane waves:    1748
 k-point 87 :   0.1471 0.0000 0.1471  plane waves:    1748
 k-point 88 :   0.1492 0.0000 0.1492  plane waves:    1748
 k-point 89 :   0.1513 0.0000 0.1513  plane waves:    1736
 k-point 90 :   0.1534 0.0000 0.1534  plane waves:    1736
 k-point 91 :   0.1555 0.0000 0.1555  plane waves:    1736
 k-point 92 :   0.1576 0.0000 0.1576  plane waves:    1736
 k-point 93 :   0.1597 0.0000 0.1597  plane waves:    1736
 k-point 94 :   0.1618 0.0000 0.1618  plane waves:    1736
 k-point 95 :   0.1639 0.0000 0.1639  plane waves:    1736
 k-point 96 :   0.1660 0.0000 0.1660  plane waves:    1736
 k-point 97 :   0.1681 0.0000 0.1681  plane waves:    1736
 k-point 98 :   0.1702 0.0000 0.1702  plane waves:    1744
 k-point 99 :   0.1723 0.0000 0.1723  plane waves:    1744
 k-point ** :   0.1744 0.0000 0.1744  plane waves:    1744
 k-point ** :   0.1765 0.0000 0.1765  plane waves:    1748
 k-point ** :   0.1786 0.0000 0.1786  plane waves:    1748
 k-point ** :   0.1807 0.0000 0.1807  plane waves:    1748
 k-point ** :   0.1828 0.0000 0.1828  plane waves:    1748
 k-point ** :   0.1849 0.0000 0.1849  plane waves:    1748
 k-point ** :   0.1870 0.0000 0.1870  plane waves:    1748
 k-point ** :   0.1891 0.0000 0.1891  plane waves:    1744
 k-point ** :   0.1912 0.0000 0.1912  plane waves:    1744
 k-point ** :   0.1933 0.0000 0.1933  plane waves:    1744
 k-point ** :   0.1954 0.0000 0.1954  plane waves:    1736
 k-point ** :   0.1975 0.0000 0.1975  plane waves:    1736
 k-point ** :   0.1996 0.0000 0.1996  plane waves:    1736
 k-point ** :   0.2017 0.0000 0.2017  plane waves:    1736
 k-point ** :   0.2038 0.0000 0.2038  plane waves:    1736
 k-point ** :   0.2059 0.0000 0.2059  plane waves:    1736
 k-point ** :   0.2080 0.0000 0.2080  plane waves:    1736
 k-point ** :   0.2101 0.0000 0.2101  plane waves:    1736
 k-point ** :   0.2122 0.0000 0.2122  plane waves:    1736
 k-point ** :   0.2143 0.0000 0.2143  plane waves:    1736
 k-point ** :   0.2164 0.0000 0.2164  plane waves:    1736
 k-point ** :   0.2185 0.0000 0.2185  plane waves:    1736
 k-point ** :   0.2206 0.0000 0.2206  plane waves:    1736
 k-point ** :   0.2227 0.0000 0.2227  plane waves:    1736
 k-point ** :   0.2248 0.0000 0.2248  plane waves:    1736
 k-point ** :   0.2269 0.0000 0.2269  plane waves:    1736
 k-point ** :   0.2290 0.0000 0.2290  plane waves:    1736
 k-point ** :   0.2311 0.0000 0.2311  plane waves:    1736
 k-point ** :   0.2332 0.0000 0.2332  plane waves:    1736
 k-point ** :   0.2353 0.0000 0.2353  plane waves:    1728
 k-point ** :   0.2374 0.0000 0.2374  plane waves:    1716
 k-point ** :   0.2395 0.0000 0.2395  plane waves:    1716
 k-point ** :   0.2416 0.0000 0.2416  plane waves:    1716
 k-point ** :   0.2437 0.0000 0.2437  plane waves:    1716
 k-point ** :   0.2458 0.0000 0.2458  plane waves:    1716
 k-point ** :   0.2479 0.0000 0.2479  plane waves:    1716
 k-point ** :   0.2500 0.0000 0.2500  plane waves:    1716
 k-point ** :   0.2521 0.0000 0.2521  plane waves:    1716
 k-point ** :   0.2542 0.0000 0.2542  plane waves:    1716
 k-point ** :   0.2563 0.0000 0.2563  plane waves:    1716
 k-point ** :   0.2584 0.0000 0.2584  plane waves:    1716
 k-point ** :   0.2605 0.0000 0.2605  plane waves:    1716
 k-point ** :   0.2626 0.0000 0.2626  plane waves:    1720
 k-point ** :   0.2647 0.0000 0.2647  plane waves:    1720
 k-point ** :   0.2668 0.0000 0.2668  plane waves:    1720
 k-point ** :   0.2689 0.0000 0.2689  plane waves:    1720
 k-point ** :   0.2710 0.0000 0.2710  plane waves:    1720
 k-point ** :   0.2731 0.0000 0.2731  plane waves:    1724
 k-point ** :   0.2752 0.0000 0.2752  plane waves:    1724
 k-point ** :   0.2773 0.0000 0.2773  plane waves:    1724
 k-point ** :   0.2794 0.0000 0.2794  plane waves:    1724
 k-point ** :   0.2815 0.0000 0.2815  plane waves:    1724
 k-point ** :   0.2836 0.0000 0.2836  plane waves:    1724
 k-point ** :   0.2857 0.0000 0.2857  plane waves:    1724
 k-point ** :   0.2878 0.0000 0.2878  plane waves:    1724
 k-point ** :   0.2899 0.0000 0.2899  plane waves:    1728
 k-point ** :   0.2920 0.0000 0.2920  plane waves:    1728
 k-point ** :   0.2941 0.0000 0.2941  plane waves:    1728
 k-point ** :   0.2962 0.0000 0.2962  plane waves:    1728
 k-point ** :   0.2983 0.0000 0.2983  plane waves:    1720
[...]
 k-point ** :   0.4759 0.4759 0.4759  plane waves:    1718
 k-point ** :   0.4777 0.4777 0.4777  plane waves:    1718
 k-point ** :   0.4794 0.4794 0.4794  plane waves:    1718
 k-point ** :   0.4811 0.4811 0.4811  plane waves:    1718
 k-point ** :   0.4828 0.4828 0.4828  plane waves:    1718
 k-point ** :   0.4845 0.4845 0.4845  plane waves:    1718
 k-point ** :   0.4863 0.4863 0.4863  plane waves:    1718
 k-point ** :   0.4880 0.4880 0.4880  plane waves:    1718
 k-point ** :   0.4897 0.4897 0.4897  plane waves:    1718
 k-point ** :   0.4914 0.4914 0.4914  plane waves:    1718
 k-point ** :   0.4931 0.4931 0.4931  plane waves:    1718
 k-point ** :   0.4948 0.4948 0.4948  plane waves:    1718
 k-point ** :   0.4966 0.4966 0.4966  plane waves:    1718
 k-point ** :   0.4983 0.4983 0.4983  plane waves:    1718
 k-point ** :   0.5000 0.5000 0.5000  plane waves:    1718

 maximum and minimum number of plane-waves per node :       304      278

 maximum number of plane-waves:      1775
 maximum index in each direction:
   IXMAX=    8   IYMAX=    8   IZMAX=    8
   IXMIN=   -8   IYMIN=   -8   IZMIN=   -9

 NGX is ok and might be reduce to  34
 NGY is ok and might be reduce to  34
 NGZ is ok and might be reduce to  36

 parallel 3D FFT for wavefunctions:
    minimum data exchange during FFTs selected (reduces bandwidth)
 parallel 3D FFT for charge:
    minimum data exchange during FFTs selected (reduces bandwidth)

 FFT grid for exact exchange (Hartree Fock)
  NGX = 20; NGY = 20; NGZ = 20

 Radii for the augmentation spheres in the non-local exchange
 for species   1 augmentation radius   1.444 (default was   1.070)
       energy cutoff for augmentation   2000.0
 for species   2 augmentation radius   1.606 (default was   1.190)
       energy cutoff for augmentation   2000.0

 real space projection operators:
  max/ min on nodes  :        150.20         97.27

 Maximum index for augmentation-charges in exchange          420
  SETUP_FOCK is finished

 Broyden mixing: mesh for mixing (old mesh)
   NGX = 17   NGY = 17   NGZ = 17
  (NGX  = 72   NGY  = 72   NGZ  = 72)
  gives a total of   4913 points

 initial charge density was supplied:
 charge density of overlapping atoms calculated
 number of electron      18.0000000 magnetization
 charge density for first step will be calculated from the start-wavefunctions

 Maximum index for augmentation-charges         1676 (set IRDMAX)

 First call to EWALD:  gamma=   0.434
 Maximum number of real-space cells 3x 3x 3
 Maximum number of reciprocal cells 3x 3x 3

 FEWALD executed in parallel

----------------------------------------- Iteration    1(   1)  ---------------------------------------

 eigenvalue-minimisations  : 41264
 total energy-change (2. order) : 0.6385061E+03  (-0.4341250E+04)
 number of electron      18.0000000 magnetization
 augmentation part       18.0000000 magnetization

 Free energy of the ion-electron system (eV)
  alpha Z        PSCENC =        50.17222034
  Ewald energy   TEWEN  =     -1044.83138452
  -Hartree energ DENC   =      -510.12304479
  -exchange      EXHF   =         0.00000000
  -V(xc)+E(xc)   XCENC  =       -19.76180362
  PAW double counting   =      1401.07110985    -1338.68056378
  entropy T*S    EENTRO =        -0.00009815
  eigenvalues    EBANDS =       586.36160699
  atomic energy  EATOM  =      1514.29801353
  free energy    TOTEN  =       638.50605584 eV

  energy without entropy =      638.50615399  energy(sigma->0) =      638.50610491
  exchange ACFDT corr.  =         0.00000000  see jH, gK, PRB 81, 115126

[...]

 eigenvalue-minimisations  : 41744
 total energy-change (2. order) :-0.5440286E+03  (-0.5042271E+03)
 number of electron      18.0000000 magnetization
 augmentation part       18.0000000 magnetization

[...]

----------------------------------------- Iteration    1(  17)  ---------------------------------------

 eigenvalue-minimisations  :     0
 total energy-change (2. order) :-0.3709044E-06  (-0.8500541E-07)
 number of electron      17.9999996 magnetization
 augmentation part        4.6473200 magnetization

 Free energy of the ion-electron system (eV)
  alpha Z        PSCENC =        50.17222034
  Ewald energy   TEWEN  =     -1044.83138452
  -Hartree energ DENC   =      -506.36787111
  -exchange      EXHF   =        34.61269967
  -V(xc)+E(xc)   XCENC  =       -19.62818428
  PAW double counting   =      3343.48760152    -3280.07901292
  entropy T*S    EENTRO =        -0.00000000
  eigenvalues    EBANDS =       -97.69034151
  atomic energy  EATOM  =      1514.29801353
  free energy    TOTEN  =        -6.02625929 eV

  energy without entropy =       -6.02625929  energy(sigma->0) =       -6.02625929
  exchange ACFDT corr.  =        -0.00000000  see jH, gK, PRB 81, 115126

  average scaling for gradient   0.8972

 the core state eigenenergies are
   1-  1s    -32.6551  2s    -32.5024  2p    -32.5024  3s    -32.5024  3p    -32.5024
       3d    -32.5024  4s    -32.5024  4p    -32.5024
   2-  1s    -87.5181  2s    -87.7001  2p    -87.7001  3s    -87.7001  3p    -87.7001
       3d    -87.7001  4s    -87.7001  4p    -87.7001  4d    -87.7001

 E-fermi :   1.8770     XC(G=0):  -7.1635     alpha+bet : -7.4227

 k-point     1 :       0.0000    0.0000    0.0000
  band No.  band energies     occupation
      1     -10.3103      2.00000
      2      -7.7527      2.00000
      3      -7.7527      2.00000
      4      -7.7527      2.00000
      5      -7.4891      2.00000
      6      -7.4891      2.00000
      7       1.8315      2.00000
      8       1.8315      2.00000
      9       1.8315      2.00000
     10       3.3757      0.00000
     11       7.3029      0.00000
     12       7.3029      0.00000
     13       7.3029      0.00000
     14      10.3353      0.00000
     15      12.1719      0.00000
     16      12.1720      0.00000

[...]

 k-point  1012 :       0.5000    0.5000    0.5000
  band No.  band energies     occupation
      1      -9.9210      2.00000
      2      -7.6896      2.00000
      3      -7.6896      2.00000
      4      -7.4817      2.00000
      5      -7.4817      2.00000
      6      -7.0440      2.00000
      7      -2.9069      2.00000
      8       1.0027      2.00000
      9       1.0027      2.00000
     10       4.4429      0.00000
     11       7.8847      0.00000
     12       7.8847      0.00000
     13       9.8096      0.00000
     14      11.5794      0.00000
     15      13.2481      0.00000
     16      13.2481      0.00000

 soft charge-density along one line, spin component           1
         0         1         2         3         4         5         6         7         8         9
 total charge-density along one line

------------------------ aborting loop because EDIFF is reached ----------------------------------------

 total charge

# of ion     s       p       d       tot
  1        0.442   0.313   9.574  10.329
  2        1.309   2.230   0.020   3.558
tot        1.751   2.542   9.594  13.887

  FORCE on cell =-STRESS in cart. coord.  units (eV):
  Direction    XX          YY          ZZ          XY          YZ          ZX
  Alpha Z    50.17222    50.17222    50.17222
  Ewald    -348.27726  -348.27726  -348.27726     0.00000     0.00000     0.00000
  Hartree   168.78850   168.78850   168.78850     0.00000    -0.00000    -0.00000
  E(xc)     -66.47792   -66.47792   -66.47792    -0.00000     0.00000     0.00000
  Local     -16.90486   -16.90486   -16.90486     0.00001    -0.00001    -0.00001
  n-local    62.85805    67.65808    66.83420    -1.73757    -2.78582    -1.16058
  augment    -0.14318    -0.14318    -0.14318    -0.00001     0.00001     0.00001
  Kinetic   200.92929   204.03276   204.22515    -1.61380    -2.87090    -1.21955
  Fock            NaN         NaN         NaN         NaN         NaN         NaN
  Total           NaN         NaN         NaN         NaN         NaN         NaN
  in kB           NaN         NaN         NaN         NaN         NaN         NaN

 VOLUME and BASIS-vectors are now :
  energy-cutoff  :      500.00
  volume of cell :       68.11
      direct lattice vectors                 reciprocal lattice vectors
     3.241350000  3.241350000  0.000000000     0.154256714  0.154256714  0.154256714
     3.241350000  0.000000000 -3.241350000     0.154256714 -0.154256714 -0.154256714
     0.000000000  3.241350000 -3.241350000    -0.154256714  0.154256714 -0.154256714

  length of vectors
     4.583961130  4.583961130  4.583961130     0.267180466  0.267180466  0.267180466

 FORCES acting on ions:
    Electron-Ion                     Ewald-Force                    Non-Local-Force
   -.125E-07 -.118E-07 0.118E-07   -.744E-14 -.454E-14 0.998E-14   -.781E-17 -.347E-16 0.347E-17
   0.182E-06 0.188E-06 -.188E-06   0.759E-14 0.606E-14 -.102E-13   -.392E-16 -.139E-16 0.833E-16
   -.889E-06 -.883E-06 0.883E-06   0.152E-15 0.152E-14 -.238E-15   -.471E-16 -.486E-16 0.867E-16

 POSITION                                       TOTAL-FORCE (eV/Angst)
      0.00000      0.00000      0.00000              NaN           NaN           NaN
      1.62068      1.62068     -1.62068              NaN           NaN           NaN
    total drift:                                     NaN           NaN           NaN

  FREE ENERGIE OF THE ION-ELECTRON SYSTEM (eV)
  free  energy   TOTEN  =        -6.02625929 eV

  energy  without entropy=       -6.02625929  energy(sigma->0) =       -6.02625929

 writing wavefunctions

 total charge

# of ion     s       p       d       tot
  1        0.442   0.313   9.574  10.329
  2        1.309   2.230   0.020   3.558
tot        1.751   2.542   9.594  13.887