 vasp.5.4.1 24Jun15 (build Nov 25 2015 16:39:35) complex

 executed on         CrayXC-Intel date 2016.09.29  11:22:19

 INCAR:
 POTCAR:    PAW_PBE Cd 06Sep2000
 POTCAR:    PAW_PBE Te 08Apr2002

 POTCAR:    PAW_PBE Cd 06Sep2000
   VRHFIN =Cd : s2 d10

   TITEL  = PAW_PBE Cd 06Sep2000
   POMASS =  112.411; ZVAL   =   12.000    mass and valenz
   ENMAX  =  274.336; ENMIN  =  205.752 eV

 POTCAR:    PAW_PBE Te 08Apr2002
   VRHFIN =Te: s2p4

   TITEL  = PAW_PBE Te 08Apr2002
   POMASS =  127.600; ZVAL   =    6.000    mass and valenz
   ENMAX  =  174.982; ENMIN  =  131.236 eV

  PAW_PBE Cd 06Sep2000                  :
  PAW_PBE Te 08Apr2002                  :

 POSCAR: CdTe (ICSD, 295K, Rabadanov 2001)
  positions in direct lattice
  velocities in cartesian coordinates
 exchange correlation table for  LEXCH =        8
   RHO(1)=    0.500       N(1)  =     2000
   RHO(2)=  100.500       N(2)  =     4000

 ion  position               nearest neighbor table
   1  0.000  0.000  0.000-   2 2.81   2 2.81   2 2.81   2 2.81
   2  0.250  0.250  0.250-   1 2.81   1 2.81   1 2.81   1 2.81

IMPORTANT INFORMATION: All symmetrisations will be switched off!
NOSYMM: (Re-)initialisation of all symmetry stuff for point group C_1.

 KPOINTS: Automatic mesh

Automatic generation of k-mesh.
Space group operators:
 irot       det(A)        alpha          n_x          n_y          n_z        tau_x        tau_y        tau_z
    1     1.000000     0.000000     1.000000     0.000000     0.000000     0.000000     0.000000     0.000000

 Subroutine IBZKPT returns following result:

 Found    216 irreducible k-points:

 Following reciprocal coordinates:
            Coordinates               Weight
  0.000000  0.000000  0.000000      1.000000
  0.166667  0.000000  0.000000      1.000000
  0.333333  0.000000  0.000000      1.000000
  0.500000  0.000000  0.000000      1.000000
 -0.333333  0.000000  0.000000      1.000000
 -0.166667  0.000000  0.000000      1.000000
  0.000000  0.166667  0.000000      1.000000
  0.166667  0.166667  0.000000      1.000000
  0.333333  0.166667  0.000000      1.000000
  0.500000  0.166667  0.000000      1.000000
 -0.333333  0.166667  0.000000      1.000000
 -0.166667  0.166667  0.000000      1.000000
  0.000000  0.333333  0.000000      1.000000
  0.166667  0.333333  0.000000      1.000000
  0.333333  0.333333  0.000000      1.000000
  0.500000  0.333333  0.000000      1.000000
 -0.333333  0.333333  0.000000      1.000000
 -0.166667  0.333333  0.000000      1.000000
  0.000000  0.500000  0.000000      1.000000
  0.166667  0.500000  0.000000      1.000000
  0.333333  0.500000  0.000000      1.000000
  0.500000  0.500000  0.000000      1.000000
 -0.333333  0.500000  0.000000      1.000000
 -0.166667  0.500000  0.000000      1.000000
  0.000000 -0.333333  0.000000      1.000000
  0.166667 -0.333333  0.000000      1.000000
  0.333333 -0.333333  0.000000      1.000000
  0.500000 -0.333333  0.000000      1.000000
 -0.333333 -0.333333  0.000000      1.000000
 -0.166667 -0.333333  0.000000      1.000000
  0.000000 -0.166667  0.000000      1.000000
  0.166667 -0.166667  0.000000      1.000000
  0.333333 -0.166667  0.000000      1.000000
  0.500000 -0.166667  0.000000      1.000000
 -0.333333 -0.166667  0.000000      1.000000
 -0.166667 -0.166667  0.000000      1.000000
  0.000000  0.000000  0.166667      1.000000
  0.166667  0.000000  0.166667      1.000000
  0.333333  0.000000  0.166667      1.000000
  0.500000  0.000000  0.166667      1.000000
 -0.333333  0.000000  0.166667      1.000000
 -0.166667  0.000000  0.166667      1.000000
  0.000000  0.166667  0.166667      1.000000
  0.166667  0.166667  0.166667      1.000000
  0.333333  0.166667  0.166667      1.000000
  0.500000  0.166667  0.166667      1.000000
 -0.333333  0.166667  0.166667      1.000000
 -0.166667  0.166667  0.166667      1.000000
  0.000000  0.333333  0.166667      1.000000
  0.166667  0.333333  0.166667      1.000000
  0.333333  0.333333  0.166667      1.000000
  0.500000  0.333333  0.166667      1.000000
 -0.333333  0.333333  0.166667      1.000000
 -0.166667  0.333333  0.166667      1.000000
  0.000000  0.500000  0.166667      1.000000
  0.166667  0.500000  0.166667      1.000000
  0.333333  0.500000  0.166667      1.000000
  0.500000  0.500000  0.166667      1.000000
 -0.333333  0.500000  0.166667      1.000000
 -0.166667  0.500000  0.166667      1.000000
[...]
  0.500000  0.500000 -0.166667      1.000000
 -0.333333  0.500000 -0.166667      1.000000
 -0.166667  0.500000 -0.166667      1.000000
  0.000000 -0.333333 -0.166667      1.000000
  0.166667 -0.333333 -0.166667      1.000000
  0.333333 -0.333333 -0.166667      1.000000
  0.500000 -0.333333 -0.166667      1.000000
 -0.333333 -0.333333 -0.166667      1.000000
 -0.166667 -0.333333 -0.166667      1.000000
  0.000000 -0.166667 -0.166667      1.000000
  0.166667 -0.166667 -0.166667      1.000000
  0.333333 -0.166667 -0.166667      1.000000
  0.500000 -0.166667 -0.166667      1.000000
 -0.333333 -0.166667 -0.166667      1.000000
 -0.166667 -0.166667 -0.166667      1.000000

 Following cartesian coordinates:
            Coordinates               Weight
  0.000000  0.000000  0.000000      1.000000
  0.166667  0.166667  0.166667      1.000000
  0.333333  0.333333  0.333333      1.000000
  0.500000  0.500000  0.500000      1.000000
 -0.333333 -0.333333 -0.333333      1.000000
 -0.166667 -0.166667 -0.166667      1.000000
  0.166667 -0.166667 -0.166667      1.000000
  0.333333  0.000000  0.000000      1.000000
  0.500000  0.166667  0.166667      1.000000
  0.666667  0.333333  0.333333      1.000000
 -0.166667 -0.500000 -0.500000      1.000000
  0.000000 -0.333333 -0.333333      1.000000
  0.333333 -0.333333 -0.333333      1.000000
  0.500000 -0.166667 -0.166667      1.000000
  0.666667  0.000000  0.000000      1.000000
  0.833333  0.166667  0.166667      1.000000
  0.000000 -0.666667 -0.666667      1.000000
  0.166667 -0.500000 -0.500000      1.000000
  0.500000 -0.500000 -0.500000      1.000000
  0.666667 -0.333333 -0.333333      1.000000
  0.833333 -0.166667 -0.166667      1.000000
  1.000000  0.000000  0.000000      1.000000
  0.166667 -0.833333 -0.833333      1.000000
  0.333333 -0.666667 -0.666667      1.000000
 -0.333333  0.333333  0.333333      1.000000
 -0.166667  0.500000  0.500000      1.000000
  0.000000  0.666667  0.666667      1.000000
  0.166667  0.833333  0.833333      1.000000
 -0.666667  0.000000  0.000000      1.000000
 -0.500000  0.166667  0.166667      1.000000
 -0.166667  0.166667  0.166667      1.000000
  0.000000  0.333333  0.333333      1.000000
  0.166667  0.500000  0.500000      1.000000
  0.333333  0.666667  0.666667      1.000000
 -0.500000 -0.166667 -0.166667      1.000000
 -0.333333  0.000000  0.000000      1.000000
 -0.166667  0.166667 -0.166667      1.000000
  0.000000  0.333333  0.000000      1.000000
  0.166667  0.500000  0.166667      1.000000
  0.333333  0.666667  0.333333      1.000000
 -0.500000 -0.166667 -0.500000      1.000000
 -0.333333  0.000000 -0.333333      1.000000
  0.000000  0.000000 -0.333333      1.000000
  0.166667  0.166667 -0.166667      1.000000
  0.333333  0.333333 -0.000000      1.000000
  0.500000  0.500000  0.166667      1.000000
 -0.333333 -0.333333 -0.666667      1.000000
 -0.166667 -0.166667 -0.500000      1.000000
  0.166667 -0.166667 -0.500000      1.000000
  0.333333  0.000000 -0.333333      1.000000
  0.500000  0.166667 -0.166667      1.000000
  0.666667  0.333333  0.000000      1.000000
 -0.166667 -0.500000 -0.833333      1.000000
 -0.000000 -0.333333 -0.666667      1.000000
  0.333333 -0.333333 -0.666667      1.000000
  0.500000 -0.166667 -0.500000      1.000000
  0.666667 -0.000000 -0.333333      1.000000
  0.833333  0.166667 -0.166667      1.000000
  0.000000 -0.666667 -1.000000      1.000000
  0.166667 -0.500000 -0.833333      1.000000
[...]
  1.166667 -0.166667  0.166667      1.000000
  0.333333 -1.000000 -0.666667      1.000000
  0.500000 -0.833333 -0.500000      1.000000
 -0.166667  0.166667  0.500000      1.000000
 -0.000000  0.333333  0.666667      1.000000
  0.166667  0.500000  0.833333      1.000000
  0.333333  0.666667  1.000000      1.000000
 -0.500000 -0.166667  0.166667      1.000000
 -0.333333 -0.000000  0.333333      1.000000
  0.000000  0.000000  0.333333      1.000000
  0.166667  0.166667  0.500000      1.000000
  0.333333  0.333333  0.666667      1.000000
  0.500000  0.500000  0.833333      1.000000
 -0.333333 -0.333333  0.000000      1.000000
 -0.166667 -0.166667  0.166667      1.000000

 I would recommend the setting:
   dimension x,y,z NGX =    33 NGY =   33 NGZ =   33
 SYSTEM =  Name
 POSCAR =  CdTe (ICSD, 295K, Rabadanov 2001)

 Startparameter for this run:
   NWRITE =      2    write-flag & timer
   PREC   = accura    normal or accurate (medium, high low for compatibility)
   ISTART =      0    job   : 0-new  1-cont  2-samecut
   ICHARG =      2    charge: 1-file 2-atom 10-const
   ISPIN  =      1    spin polarized calculation?
   LNONCOLLINEAR =      T non collinear calculations
   LSORBIT =      T    spin-orbit coupling
   INIWAV =      1    electr: 0-lowe 1-rand  2-diag
   LASPH  =      F    aspherical Exc in radial PAW
   METAGGA=      F    non-selfconsistent MetaGGA calc.

 Electronic Relaxation 1
   ENCUT  =  500.0 eV  36.75 Ry    6.06 a.u.   8.36  8.36  8.36*2*pi/ulx,y,z
   ENINI  =  500.0     initial cutoff
   ENAUG  =  456.1 eV  augmentation charge cutoff
   NELM   =     60;   NELMIN=  2; NELMDL=  0     # of ELM steps
   EDIFF  = 0.1E-05   stopping-criterion for ELM
   LREAL  =      F    real-space projection
   NLSPLINE    = F    spline interpolate recip. space projectors
   LCOMPAT=      F    compatible to vasp.4.4
   GGA_COMPAT  = T    GGA compatible to vasp.4.4-vasp.4.6
   LMAXPAW     = -100 max onsite density
   LMAXMIX     =    2 max onsite mixed and CHGCAR
   VOSKOWN=      0    Vosko Wilk Nusair interpolation
   ROPT   =    0.00000   0.00000
 Ionic relaxation
   EDIFFG = -.5E-02   stopping-criterion for IOM
   NSW    =      1    number of steps for IOM
   NBLOCK =      1;   KBLOCK =      1    inner block; outer block
   IBRION =      2    ionic relax: 0-MD 1-quasi-New 2-CG
   NFREE  =      1    steps in history (QN), initial steepest desc. (CG)
   ISIF   =      3    stress and relaxation
   IWAVPR =     11    prediction:  0-non 1-charg 2-wave 3-comb
   ISYM   =      0    0-nonsym 1-usesym 2-fastsym
   LCORR  =      T    Harris-Foulkes like correction to forces

   POTIM  = 0.5000    time-step for ionic-motion
   TEIN   =    0.0    initial temperature
   TEBEG  =    0.0;   TEEND  =   0.0 temperature during run
   SMASS  =  -3.00    Nose mass-parameter (am)
   estimated Nose-frequenzy (Omega)   =  0.10E-29 period in steps =****** mass=  -0.480E-27a.u.
   SCALEE = 1.0000    scale energy and forces
   NPACO  =    256;   APACO  = 16.0  distance and # of slots for P.C.
   PSTRESS=    0.0 pullay stress

  Mass of Ions in am
   POMASS = 112.41127.60
  Ionic Valenz
   ZVAL   =  12.00  6.00
  Atomic Wigner-Seitz radii
  virtual crystal weights
   VCA    =   1.00  1.00
   NELECT =      18.0000    total number of electrons
   NUPDOWN=      -1.0000    fix difference up-down

[...]
 k-point ** :   0.5000 0.0000 0.5000  plane waves:    3448
 k-point ** :  -0.3333 0.0000 0.5000  plane waves:    3446
 k-point ** :  -0.1667 0.0000 0.5000  plane waves:    3478
 k-point ** :   0.0000 0.1667 0.5000  plane waves:    3478
 k-point ** :   0.1667 0.1667 0.5000  plane waves:    3464
 k-point ** :   0.3333 0.1667 0.5000  plane waves:    3448
 k-point ** :   0.5000 0.1667 0.5000  plane waves:    3446
 k-point ** :  -0.3333 0.1667 0.5000  plane waves:    3444
 k-point ** :  -0.1667 0.1667 0.5000  plane waves:    3452
 k-point ** :   0.0000 0.3333 0.5000  plane waves:    3446
 k-point ** :   0.1667 0.3333 0.5000  plane waves:    3448
 k-point ** :   0.3333 0.3333 0.5000  plane waves:    3464
 k-point ** :   0.5000 0.3333 0.5000  plane waves:    3478
 k-point ** :  -0.3333 0.3333 0.5000  plane waves:    3452
 k-point ** :  -0.1667 0.3333 0.5000  plane waves:    3444
 k-point ** :   0.0000 0.5000 0.5000  plane waves:    3448
 k-point ** :   0.1667 0.5000 0.5000  plane waves:    3446
 k-point ** :   0.3333 0.5000 0.5000  plane waves:    3478
 k-point ** :   0.5000 0.5000 0.5000  plane waves:    3436
 k-point ** :  -0.3333 0.5000 0.5000  plane waves:    3478
 k-point ** :  -0.1667 0.5000 0.5000  plane waves:    3446
 k-point ** :   0.0000-0.3333 0.5000  plane waves:    3446
 k-point ** :   0.1667-0.3333 0.5000  plane waves:    3444
 k-point ** :   0.3333-0.3333 0.5000  plane waves:    3452
 k-point ** :   0.5000-0.3333 0.5000  plane waves:    3478
 k-point ** :  -0.3333-0.3333 0.5000  plane waves:    3464
 k-point ** :  -0.1667-0.3333 0.5000  plane waves:    3448
 k-point ** :   0.0000-0.1667 0.5000  plane waves:    3478
 k-point ** :   0.1667-0.1667 0.5000  plane waves:    3452
 k-point ** :   0.3333-0.1667 0.5000  plane waves:    3444
 k-point ** :   0.5000-0.1667 0.5000  plane waves:    3446
 k-point ** :  -0.3333-0.1667 0.5000  plane waves:    3448
 k-point ** :  -0.1667-0.1667 0.5000  plane waves:    3464
 k-point ** :   0.0000 0.0000-0.3333  plane waves:    3460
 k-point ** :   0.1667 0.0000-0.3333  plane waves:    3464
 k-point ** :   0.3333 0.0000-0.3333  plane waves:    3452
 k-point ** :   0.5000 0.0000-0.3333  plane waves:    3446
 k-point ** :  -0.3333 0.0000-0.3333  plane waves:    3456
 k-point ** :  -0.1667 0.0000-0.3333  plane waves:    3458
 k-point ** :   0.0000 0.1667-0.3333  plane waves:    3464
 k-point ** :   0.1667 0.1667-0.3333  plane waves:    3478
 k-point ** :   0.3333 0.1667-0.3333  plane waves:    3452
 k-point ** :   0.5000 0.1667-0.3333  plane waves:    3444
 k-point ** :  -0.3333 0.1667-0.3333  plane waves:    3446
 k-point ** :  -0.1667 0.1667-0.3333  plane waves:    3448
 k-point ** :   0.0000 0.3333-0.3333  plane waves:    3452
 k-point ** :   0.1667 0.3333-0.3333  plane waves:    3452
 k-point ** :   0.3333 0.3333-0.3333  plane waves:    3452
[...]
 k-point ** :   0.5000 0.5000-0.1667  plane waves:    3446
 k-point ** :  -0.3333 0.5000-0.1667  plane waves:    3448
 k-point ** :  -0.1667 0.5000-0.1667  plane waves:    3464
 k-point ** :   0.0000-0.3333-0.1667  plane waves:    3458
 k-point ** :   0.1667-0.3333-0.1667  plane waves:    3448
 k-point ** :   0.3333-0.3333-0.1667  plane waves:    3452
 k-point ** :   0.5000-0.3333-0.1667  plane waves:    3448
 k-point ** :  -0.3333-0.3333-0.1667  plane waves:    3458
 k-point ** :  -0.1667-0.3333-0.1667  plane waves:    3470
 k-point ** :   0.0000-0.1667-0.1667  plane waves:    3472
 k-point ** :   0.1667-0.1667-0.1667  plane waves:    3458
 k-point ** :   0.3333-0.1667-0.1667  plane waves:    3478
 k-point ** :   0.5000-0.1667-0.1667  plane waves:    3464
 k-point ** :  -0.3333-0.1667-0.1667  plane waves:    3470
 k-point ** :  -0.1667-0.1667-0.1667  plane waves:    3494

 maximum and minimum number of plane-waves per node :       170      114

 maximum number of plane-waves:      3518
 maximum index in each direction:
   IXMAX=    8   IYMAX=    8   IZMAX=    8
   IXMIN=   -8   IYMIN=   -8   IZMIN=   -8

 NGX is ok and might be reduce to  34
 NGY is ok and might be reduce to  34
 NGZ is ok and might be reduce to  34

 parallel 3D FFT for wavefunctions:
    minimum data exchange during FFTs selected (reduces bandwidth)
 parallel 3D FFT for charge:
    minimum data exchange during FFTs selected (reduces bandwidth)

 Broyden mixing: mesh for mixing (old mesh)
   NGX = 17   NGY = 17   NGZ = 17
  (NGX  = 72   NGY  = 72   NGZ  = 72)
  gives a total of   4913 points

 initial charge density was supplied:
 charge density of overlapping atoms calculated
 number of electron      18.0000000 magnetization       2.0000000      2.0000000      2.0000000
 keeping initial charge density in first step

 Maximum index for augmentation-charges         1676 (set IRDMAX)

 First call to EWALD:  gamma=   0.434
 Maximum number of real-space cells 3x 3x 3
 Maximum number of reciprocal cells 3x 3x 3

 FEWALD executed in parallel

----------------------------------------- Iteration    1(   1)  ---------------------------------------

 eigenvalue-minimisations  : 12136
 total energy-change (2. order) : 0.1102193E+03  (-0.7938668E+03)
 number of electron      18.0000000 magnetization       2.0000000      2.0000000      2.0000000
 augmentation part       18.0000000 magnetization       2.0000000      2.0000000      2.0000000

 Free energy of the ion-electron system (eV)
  alpha Z        PSCENC =        50.17222034
  Ewald energy   TEWEN  =     -1044.83138452
  -Hartree energ DENC   =      -510.12304479
  -exchange      EXHF   =         0.00000000
  -V(xc)+E(xc)   XCENC  =       -22.14237255
  PAW double counting   =      1403.96929583    -1331.69227184
  entropy T*S    EENTRO =        -0.00000906
  eigenvalues    EBANDS =        48.42028955
  atomic energy  EATOM  =      1516.44661579
  Solvation  Ediel_sol  =         0.00000000
  free energy    TOTEN  =       110.21933875 eV

  energy without entropy =      110.21934781  energy(sigma->0) =      110.21934328

[...]

 eigenvalue-minimisations  : 13116
 total energy-change (2. order) :-0.1091493E+03  (-0.1052664E+03)
 number of electron      18.0000000 magnetization       2.0000000      2.0000000      2.0000000
 augmentation part       18.0000000 magnetization       2.0000000      2.0000000      2.0000000

[...]

 total charge

# of ion     s       p       d       tot
  1        0.422   0.283   9.496  10.202
  2        1.377   2.200   0.023   3.599
tot        1.800   2.483   9.519  13.801

 magnetization (x)

[...]

 magnetization (y)

[...]

 magnetization (z)

[...]

 Broyden mixing:
  rms(total) = 0.11183E+01    rms(broyden)= 0.11183E+01
  rms(prec ) = 0.12909E+01
  weight for this iteration     100.00

[...]

 eigenvalues of (default mixing * dielectric matrix)
  average eigenvalue GAMMA=   0.7569
  0.7569

[...]

 eigenvalue-minimisations  : 12528
 total energy-change (2. order) : 0.1634400E-02  (-0.1914049E-02)
 number of electron      17.9999996 magnetization       0.0018958      0.0018959      0.0018963
 augmentation part        4.5774596 magnetization       0.0034715      0.0034682      0.0034694

[...]

 Broyden mixing:
  rms(total) = 0.25523E-03    rms(broyden)= 0.25523E-03
  rms(prec ) = 0.35858E-03
  weight for this iteration     100.00

 eigenvalues of (default mixing * dielectric matrix)
  average eigenvalue GAMMA=   1.2989
  2.7574  2.5296  1.5795  1.5795  1.0053  0.8159  0.8159  0.6122  0.6122  0.6818

[...]

----------------------------------------- Iteration    1(  16)  ---------------------------------------

 eigenvalue-minimisations  :  9300
 total energy-change (2. order) :-0.3143668E-06  (-0.3198638E-07)
 number of electron      17.9999996 magnetization       0.0000124      0.0000124      0.0000124
 augmentation part        4.5754833 magnetization       0.0000163      0.0000164      0.0000164

 Free energy of the ion-electron system (eV)
  alpha Z        PSCENC =        50.17222034
  Ewald energy   TEWEN  =     -1044.83138452
  -Hartree energ DENC   =      -503.67531714
  -exchange      EXHF   =         0.00000000
  -V(xc)+E(xc)   XCENC  =       -22.55913447
  PAW double counting   =      1798.23610110    -1725.67234118
  entropy T*S    EENTRO =        -0.00000000
  eigenvalues    EBANDS =       -73.01453221
  atomic energy  EATOM  =      1516.44661579
  Solvation  Ediel_sol  =         0.00000000
  free energy    TOTEN  =        -4.89777230 eV

  energy without entropy =       -4.89777230  energy(sigma->0) =       -4.89777230

 the core state eigenenergies are
   1-  1s -26513.5791  2s  -3930.7590  2p  -3526.0130  3s   -727.6316  3p   -594.9208
       3d   -387.3722  4s    -99.8135  4p    -60.8706
   2-  1s -31612.8624  2s  -4840.4498  2p  -4343.8446  3s   -956.6755  3p   -795.3332
       3d   -551.5827  4s   -156.1963  4p   -106.2367  4d    -33.5649

 E-fermi :   2.6720     XC(G=0):  -8.5794     alpha+bet : -7.4227

 k-point     1 :       0.0000    0.0000    0.0000
  band No.  band energies     occupation
      1      -8.8181      1.00000
      2      -8.8181      1.00000
      3      -6.2572      1.00000
      4      -6.2572      1.00000
      5      -6.2572      1.00000
      6      -6.2572      1.00000
      7      -5.7103      1.00000
      8      -5.7103      1.00000
      9      -5.4981      1.00000
     10      -5.4981      1.00000
     11      -5.4981      1.00000
     12      -5.4981      1.00000
     13       1.7798      1.00000
     14       1.7798      1.00000
     15       2.6168      1.00000
     16       2.6168      1.00000
     17       2.6168      1.00000
     18       2.6168      1.00000
     19       3.1126      0.00000
     20       3.1126      0.00000
     21       6.7148      0.00000
     22       6.7148      0.00000
     23       7.0485      0.00000
     24       7.0485      0.00000
     25       7.0485      0.00000
     26       7.0485      0.00000
     27       9.8031      0.00000
     28       9.8032      0.00000

[...]

 k-point   216 :      -0.1667   -0.1667   -0.1667
  band No.  band energies     occupation
      1      -8.7192      1.00000
      2      -8.7192      1.00000
      3      -6.2627      1.00000
      4      -6.2402      1.00000
      5      -6.2041      1.00000
      6      -6.2041      1.00000
      7      -5.6709      1.00000
      8      -5.6709      1.00000
      9      -5.5001      1.00000
     10      -5.4893      1.00000
     11      -5.4893      1.00000
     12      -5.4716      1.00000
     13       0.5471      1.00000
     14       0.5471      1.00000
     15       1.8711      1.00000
     16       1.8711      1.00000
     17       2.3709      1.00000
     18       2.3881      1.00000
     19       4.2096      0.00000
     20       4.2096      0.00000
     21       7.0447      0.00000
     22       7.0448      0.00000
     23       7.1930      0.00000
     24       7.1930      0.00000
     25       7.3829      0.00000
     26       7.3950      0.00000
     27      10.7854      0.00000
     28      10.8115      0.00000

 soft charge-density along one line, spin component           1
         0         1         2         3         4         5         6         7         8         9
 total charge-density along one line

[...]

 soft charge-density along one line, spin component           4
         0         1         2         3         4         5         6         7         8         9
 total charge-density along one line

------------------------ aborting loop because EDIFF is reached ----------------------------------------

[...]

  FORCE on cell =-STRESS in cart. coord.  units (eV):
  Direction    XX          YY          ZZ          XY          YZ          ZX
  Alpha Z    50.17222    50.17222    50.17222
  Ewald    -348.27726  -348.27726  -348.27726     0.00000     0.00000     0.00000
  Hartree   167.89221   167.89221   167.89221    -0.00000     0.00000     0.00000
  E(xc)     -87.42803   -87.42803   -87.42803    -0.00000     0.00000     0.00000
  Local     -17.79816   -17.79816   -17.79816     0.00002    -0.00002    -0.00002
  n-local    27.20323    27.20323    27.20323    -0.00000    -0.00000    -0.00000
  augment     6.36497     6.36497     6.36497    -0.00001     0.00001     0.00001
  Kinetic   203.03024   203.03024   203.03024     0.00000     0.00000    -0.00000
  Fock        0.00000     0.00000     0.00000     0.00000     0.00000     0.00000
  Total       1.15941     1.15941     1.15941     0.00001    -0.00001    -0.00001
  in kB      27.27351    27.27351    27.27351     0.00018    -0.00016    -0.00016

 VOLUME and BASIS-vectors are now :
  energy-cutoff  :      500.00
  volume of cell :       68.11
      direct lattice vectors                 reciprocal lattice vectors
     3.241350000  3.241350000  0.000000000     0.154256714  0.154256714  0.154256714
     3.241350000  0.000000000 -3.241350000     0.154256714 -0.154256714 -0.154256714
     0.000000000  3.241350000 -3.241350000    -0.154256714  0.154256714 -0.154256714

  length of vectors
     4.583961130  4.583961130  4.583961130     0.267180466  0.267180466  0.267180466

 FORCES acting on ions
    electron-ion (+dipol)            ewald-force                    non-local-force                 convergence-correction
   0.146E-05 0.138E-05 0.164E-05   -.744E-14 -.454E-14 0.998E-14   -.175E-05 -.171E-05 -.797E-06   -.110E-05 -.106E-05 -.735E-06
   -.112E-05 -.125E-05 -.336E-06   0.759E-14 0.606E-14 -.102E-13   0.293E-05 0.294E-05 -.150E-05   0.118E-06 0.157E-06 0.286E-06
   0.338E-06 0.126E-06 0.130E-05   0.152E-15 0.152E-14 -.238E-15   0.117E-05 0.124E-05 -.230E-05   -.980E-06 -.904E-06 -.449E-06

 POSITION                                       TOTAL-FORCE (eV/Angst)
      0.00000      0.00000      0.00000        -0.000002     -0.000002      0.000001
      1.62068      1.62068     -1.62068         0.000002      0.000002     -0.000001
    total drift:                                0.000001      0.000000     -0.000001

  FREE ENERGIE OF THE ION-ELECTRON SYSTEM (eV)
  free  energy   TOTEN  =        -4.89777230 eV

  energy  without entropy=       -4.89777230  energy(sigma->0) =       -4.89777230

 writing wavefunctions

 Spin-Orbit-Coupling matrix elements

 Ion:    1  E_soc:     -0.0611297
 l=   1
     0.0000000    -0.0032134    -0.0032134
    -0.0032134     0.0000000    -0.0032134
    -0.0032134    -0.0032134     0.0000000
 l=   2
     0.0000000    -0.0014027     0.0000000    -0.0014027    -0.0055722
    -0.0014027     0.0000000    -0.0041791    -0.0014027    -0.0013930
     0.0000000    -0.0041791     0.0000000    -0.0041791     0.0000000
    -0.0014027    -0.0014027    -0.0041791     0.0000000    -0.0013930
    -0.0055722    -0.0013930     0.0000000    -0.0013930     0.0000000
 l=   3
     0.0000000     0.0000000     0.0000000     0.0000000     0.0000000     0.0000000     0.0000000
     0.0000000     0.0000000     0.0000000     0.0000000     0.0000000     0.0000000     0.0000000
     0.0000000     0.0000000     0.0000000     0.0000000     0.0000000     0.0000000     0.0000000
     0.0000000     0.0000000     0.0000000     0.0000000     0.0000000     0.0000000     0.0000000
     0.0000000     0.0000000     0.0000000     0.0000000     0.0000000     0.0000000     0.0000000
     0.0000000     0.0000000     0.0000000     0.0000000     0.0000000     0.0000000     0.0000000
     0.0000000     0.0000000     0.0000000     0.0000000     0.0000000     0.0000000     0.0000000

 Ion:    2  E_soc:     -0.1968859
 l=   1
     0.0000000    -0.0327396    -0.0327396
    -0.0327396     0.0000000    -0.0327396
    -0.0327396    -0.0327396     0.0000000
 l=   2
     0.0000000    -0.0000303     0.0000000    -0.0000303    -0.0000444
    -0.0000303     0.0000000    -0.0000333    -0.0000303    -0.0000111
     0.0000000    -0.0000333     0.0000000    -0.0000333     0.0000000
    -0.0000303    -0.0000303    -0.0000333     0.0000000    -0.0000111
    -0.0000444    -0.0000111     0.0000000    -0.0000111     0.0000000
 l=   3
     0.0000000     0.0000000     0.0000000     0.0000000     0.0000000     0.0000000     0.0000000
     0.0000000     0.0000000     0.0000000     0.0000000     0.0000000     0.0000000     0.0000000
     0.0000000     0.0000000     0.0000000     0.0000000     0.0000000     0.0000000     0.0000000
     0.0000000     0.0000000     0.0000000     0.0000000     0.0000000     0.0000000     0.0000000
     0.0000000     0.0000000     0.0000000     0.0000000     0.0000000     0.0000000     0.0000000
     0.0000000     0.0000000     0.0000000     0.0000000     0.0000000     0.0000000     0.0000000
     0.0000000     0.0000000     0.0000000     0.0000000     0.0000000     0.0000000     0.0000000

 total charge

[...]

 magnetization (x)

[...]

 magnetization (y)

[...]

 magnetization (z)

# of ion     s       p       d       tot
  1       -0.000  -0.000   0.000   0.000
  2        0.000  -0.000   0.000  -0.000
tot        0.000  -0.000   0.000  -0.000